# LAMMPS data file written by OVITO Basic 3.7.8
8000 atoms
1 atom types
0.0 35.5688400269 xlo xhi
0.0 35.5688400269 ylo yhi
0.0 35.5688400269 zlo zhi

Masses

1 12.0107  # C

Atoms  # atomic

1 1 0.0 0.0 0.0
2 1 0.0 0.0 3.5568840383
3 1 0.0 0.0 7.1137681121
4 1 0.0 0.0 10.6706524349
5 1 0.0 0.0 14.2275362242
6 1 0.0 0.0 17.7844200134
7 1 0.0 0.0 21.3413048698
8 1 0.0 0.0 24.898187592
9 1 0.0 0.0 28.4550724483
10 1 0.0 0.0 32.0119551706
11 1 0.0 3.5568840383 0.0
12 1 0.0 3.5568840383 3.5568840383
13 1 0.0 3.5568840383 7.1137681121
14 1 0.0 3.5568840383 10.6706524349
15 1 0.0 3.5568840383 14.2275362242
16 1 0.0 3.5568840383 17.7844200134
17 1 0.0 3.5568840383 21.3413048698
18 1 0.0 3.5568840383 24.898187592
19 1 0.0 3.5568840383 28.4550724483
20 1 0.0 3.5568840383 32.0119551706
21 1 0.0 7.1137681121 0.0
22 1 0.0 7.1137681121 3.5568840383
23 1 0.0 7.1137681121 7.1137681121
24 1 0.0 7.1137681121 10.6706524349
25 1 0.0 7.1137681121 14.2275362242
26 1 0.0 7.1137681121 17.7844200134
27 1 0.0 7.1137681121 21.3413048698
28 1 0.0 7.1137681121 24.898187592
29 1 0.0 7.1137681121 28.4550724483
30 1 0.0 7.1137681121 32.0119551706
31 1 0.0 10.6706524349 0.0
32 1 0.0 10.6706524349 3.5568840383
33 1 0.0 10.6706524349 7.1137681121
34 1 0.0 10.6706524349 10.6706524349
35 1 0.0 10.6706524349 14.2275362242
36 1 0.0 10.6706524349 17.7844200134
37 1 0.0 10.6706524349 21.3413048698
38 1 0.0 10.6706524349 24.898187592
39 1 0.0 10.6706524349 28.4550724483
40 1 0.0 10.6706524349 32.0119551706
41 1 0.0 14.2275362242 0.0
42 1 0.0 14.2275362242 3.5568840383
43 1 0.0 14.2275362242 7.1137681121
44 1 0.0 14.2275362242 10.6706524349
45 1 0.0 14.2275362242 14.2275362242
46 1 0.0 14.2275362242 17.7844200134
47 1 0.0 14.2275362242 21.3413048698
48 1 0.0 14.2275362242 24.898187592
49 1 0.0 14.2275362242 28.4550724483
50 1 0.0 14.2275362242 32.0119551706
51 1 0.0 17.7844200134 0.0
52 1 0.0 17.7844200134 3.5568840383
53 1 0.0 17.7844200134 7.1137681121
54 1 0.0 17.7844200134 10.6706524349
55 1 0.0 17.7844200134 14.2275362242
56 1 0.0 17.7844200134 17.7844200134
57 1 0.0 17.7844200134 21.3413048698
58 1 0.0 17.7844200134 24.898187592
59 1 0.0 17.7844200134 28.4550724483
60 1 0.0 17.7844200134 32.0119551706
61 1 0.0 21.3413048698 0.0
62 1 0.0 21.3413048698 3.5568840383
63 1 0.0 21.3413048698 7.1137681121
64 1 0.0 21.3413048698 10.6706524349
65 1 0.0 21.3413048698 14.2275362242
66 1 0.0 21.3413048698 17.7844200134
67 1 0.0 21.3413048698 21.3413048698
68 1 0.0 21.3413048698 24.898187592
69 1 0.0 21.3413048698 28.4550724483
70 1 0.0 21.3413048698 32.0119551706
71 1 0.0 24.898187592 0.0
72 1 0.0 24.898187592 3.5568840383
73 1 0.0 24.898187592 7.1137681121
74 1 0.0 24.898187592 10.6706524349
75 1 0.0 24.898187592 14.2275362242
76 1 0.0 24.898187592 17.7844200134
77 1 0.0 24.898187592 21.3413048698
78 1 0.0 24.898187592 24.898187592
79 1 0.0 24.898187592 28.4550724483
80 1 0.0 24.898187592 32.0119551706
81 1 0.0 28.4550724483 0.0
82 1 0.0 28.4550724483 3.5568840383
83 1 0.0 28.4550724483 7.1137681121
84 1 0.0 28.4550724483 10.6706524349
85 1 0.0 28.4550724483 14.2275362242
86 1 0.0 28.4550724483 17.7844200134
87 1 0.0 28.4550724483 21.3413048698
88 1 0.0 28.4550724483 24.898187592
89 1 0.0 28.4550724483 28.4550724483
90 1 0.0 28.4550724483 32.0119551706
91 1 0.0 32.0119551706 0.0
92 1 0.0 32.0119551706 3.5568840383
93 1 0.0 32.0119551706 7.1137681121
94 1 0.0 32.0119551706 10.6706524349
95 1 0.0 32.0119551706 14.2275362242
96 1 0.0 32.0119551706 17.7844200134
97 1 0.0 32.0119551706 21.3413048698
98 1 0.0 32.0119551706 24.898187592
99 1 0.0 32.0119551706 28.4550724483
100 1 0.0 32.0119551706 32.0119551706
101 1 3.5568840383 0.0 0.0
102 1 3.5568840383 0.0 3.5568840383
103 1 3.5568840383 0.0 7.1137681121
104 1 3.5568840383 0.0 10.6706524349
105 1 3.5568840383 0.0 14.2275362242
106 1 3.5568840383 0.0 17.7844200134
107 1 3.5568840383 0.0 21.3413048698
108 1 3.5568840383 0.0 24.898187592
109 1 3.5568840383 0.0 28.4550724483
110 1 3.5568840383 0.0 32.0119551706
111 1 3.5568840383 3.5568840383 0.0
112 1 3.5568840383 3.5568840383 3.5568840383
113 1 3.5568840383 3.5568840383 7.1137681121
114 1 3.5568840383 3.5568840383 10.6706524349
115 1 3.5568840383 3.5568840383 14.2275362242
116 1 3.5568840383 3.5568840383 17.7844200134
117 1 3.5568840383 3.5568840383 21.3413048698
118 1 3.5568840383 3.5568840383 24.898187592
119 1 3.5568840383 3.5568840383 28.4550724483
120 1 3.5568840383 3.5568840383 32.0119551706
121 1 3.5568840383 7.1137681121 0.0
122 1 3.5568840383 7.1137681121 3.5568840383
123 1 3.5568840383 7.1137681121 7.1137681121
124 1 3.5568840383 7.1137681121 10.6706524349
125 1 3.5568840383 7.1137681121 14.2275362242
126 1 3.5568840383 7.1137681121 17.7844200134
127 1 3.5568840383 7.1137681121 21.3413048698
128 1 3.5568840383 7.1137681121 24.898187592
129 1 3.5568840383 7.1137681121 28.4550724483
130 1 3.5568840383 7.1137681121 32.0119551706
131 1 3.5568840383 10.6706524349 0.0
132 1 3.5568840383 10.6706524349 3.5568840383
133 1 3.5568840383 10.6706524349 7.1137681121
134 1 3.5568840383 10.6706524349 10.6706524349
135 1 3.5568840383 10.6706524349 14.2275362242
136 1 3.5568840383 10.6706524349 17.7844200134
137 1 3.5568840383 10.6706524349 21.3413048698
138 1 3.5568840383 10.6706524349 24.898187592
139 1 3.5568840383 10.6706524349 28.4550724483
140 1 3.5568840383 10.6706524349 32.0119551706
141 1 3.5568840383 14.2275362242 0.0
142 1 3.5568840383 14.2275362242 3.5568840383
143 1 3.5568840383 14.2275362242 7.1137681121
144 1 3.5568840383 14.2275362242 10.6706524349
145 1 3.5568840383 14.2275362242 14.2275362242
146 1 3.5568840383 14.2275362242 17.7844200134
147 1 3.5568840383 14.2275362242 21.3413048698
148 1 3.5568840383 14.2275362242 24.898187592
149 1 3.5568840383 14.2275362242 28.4550724483
150 1 3.5568840383 14.2275362242 32.0119551706
151 1 3.5568840383 17.7844200134 0.0
152 1 3.5568840383 17.7844200134 3.5568840383
153 1 3.5568840383 17.7844200134 7.1137681121
154 1 3.5568840383 17.7844200134 10.6706524349
155 1 3.5568840383 17.7844200134 14.2275362242
156 1 3.5568840383 17.7844200134 17.7844200134
157 1 3.5568840383 17.7844200134 21.3413048698
158 1 3.5568840383 17.7844200134 24.898187592
159 1 3.5568840383 17.7844200134 28.4550724483
160 1 3.5568840383 17.7844200134 32.0119551706
161 1 3.5568840383 21.3413048698 0.0
162 1 3.5568840383 21.3413048698 3.5568840383
163 1 3.5568840383 21.3413048698 7.1137681121
164 1 3.5568840383 21.3413048698 10.6706524349
165 1 3.5568840383 21.3413048698 14.2275362242
166 1 3.5568840383 21.3413048698 17.7844200134
167 1 3.5568840383 21.3413048698 21.3413048698
168 1 3.5568840383 21.3413048698 24.898187592
169 1 3.5568840383 21.3413048698 28.4550724483
170 1 3.5568840383 21.3413048698 32.0119551706
171 1 3.5568840383 24.898187592 0.0
172 1 3.5568840383 24.898187592 3.5568840383
173 1 3.5568840383 24.898187592 7.1137681121
174 1 3.5568840383 24.898187592 10.6706524349
175 1 3.5568840383 24.898187592 14.2275362242
176 1 3.5568840383 24.898187592 17.7844200134
177 1 3.5568840383 24.898187592 21.3413048698
178 1 3.5568840383 24.898187592 24.898187592
179 1 3.5568840383 24.898187592 28.4550724483
180 1 3.5568840383 24.898187592 32.0119551706
181 1 3.5568840383 28.4550724483 0.0
182 1 3.5568840383 28.4550724483 3.5568840383
183 1 3.5568840383 28.4550724483 7.1137681121
184 1 3.5568840383 28.4550724483 10.6706524349
185 1 3.5568840383 28.4550724483 14.2275362242
186 1 3.5568840383 28.4550724483 17.7844200134
187 1 3.5568840383 28.4550724483 21.3413048698
188 1 3.5568840383 28.4550724483 24.898187592
189 1 3.5568840383 28.4550724483 28.4550724483
190 1 3.5568840383 28.4550724483 32.0119551706
191 1 3.5568840383 32.0119551706 0.0
192 1 3.5568840383 32.0119551706 3.5568840383
193 1 3.5568840383 32.0119551706 7.1137681121
194 1 3.5568840383 32.0119551706 10.6706524349
195 1 3.5568840383 32.0119551706 14.2275362242
196 1 3.5568840383 32.0119551706 17.7844200134
197 1 3.5568840383 32.0119551706 21.3413048698
198 1 3.5568840383 32.0119551706 24.898187592
199 1 3.5568840383 32.0119551706 28.4550724483
200 1 3.5568840383 32.0119551706 32.0119551706
201 1 7.1137681121 0.0 0.0
202 1 7.1137681121 0.0 3.5568840383
203 1 7.1137681121 0.0 7.1137681121
204 1 7.1137681121 0.0 10.6706524349
205 1 7.1137681121 0.0 14.2275362242
206 1 7.1137681121 0.0 17.7844200134
207 1 7.1137681121 0.0 21.3413048698
208 1 7.1137681121 0.0 24.898187592
209 1 7.1137681121 0.0 28.4550724483
210 1 7.1137681121 0.0 32.0119551706
211 1 7.1137681121 3.5568840383 0.0
212 1 7.1137681121 3.5568840383 3.5568840383
213 1 7.1137681121 3.5568840383 7.1137681121
214 1 7.1137681121 3.5568840383 10.6706524349
215 1 7.1137681121 3.5568840383 14.2275362242
216 1 7.1137681121 3.5568840383 17.7844200134
217 1 7.1137681121 3.5568840383 21.3413048698
218 1 7.1137681121 3.5568840383 24.898187592
219 1 7.1137681121 3.5568840383 28.4550724483
220 1 7.1137681121 3.5568840383 32.0119551706
221 1 7.1137681121 7.1137681121 0.0
222 1 7.1137681121 7.1137681121 3.5568840383
223 1 7.1137681121 7.1137681121 7.1137681121
224 1 7.1137681121 7.1137681121 10.6706524349
225 1 7.1137681121 7.1137681121 14.2275362242
226 1 7.1137681121 7.1137681121 17.7844200134
227 1 7.1137681121 7.1137681121 21.3413048698
228 1 7.1137681121 7.1137681121 24.898187592
229 1 7.1137681121 7.1137681121 28.4550724483
230 1 7.1137681121 7.1137681121 32.0119551706
231 1 7.1137681121 10.6706524349 0.0
232 1 7.1137681121 10.6706524349 3.5568840383
233 1 7.1137681121 10.6706524349 7.1137681121
234 1 7.1137681121 10.6706524349 10.6706524349
235 1 7.1137681121 10.6706524349 14.2275362242
236 1 7.1137681121 10.6706524349 17.7844200134
237 1 7.1137681121 10.6706524349 21.3413048698
238 1 7.1137681121 10.6706524349 24.898187592
239 1 7.1137681121 10.6706524349 28.4550724483
240 1 7.1137681121 10.6706524349 32.0119551706
241 1 7.1137681121 14.2275362242 0.0
242 1 7.1137681121 14.2275362242 3.5568840383
243 1 7.1137681121 14.2275362242 7.1137681121
244 1 7.1137681121 14.2275362242 10.6706524349
245 1 7.1137681121 14.2275362242 14.2275362242
246 1 7.1137681121 14.2275362242 17.7844200134
247 1 7.1137681121 14.2275362242 21.3413048698
248 1 7.1137681121 14.2275362242 24.898187592
249 1 7.1137681121 14.2275362242 28.4550724483
250 1 7.1137681121 14.2275362242 32.0119551706
251 1 7.1137681121 17.7844200134 0.0
252 1 7.1137681121 17.7844200134 3.5568840383
253 1 7.1137681121 17.7844200134 7.1137681121
254 1 7.1137681121 17.7844200134 10.6706524349
255 1 7.1137681121 17.7844200134 14.2275362242
256 1 7.1137681121 17.7844200134 17.7844200134
257 1 7.1137681121 17.7844200134 21.3413048698
258 1 7.1137681121 17.7844200134 24.898187592
259 1 7.1137681121 17.7844200134 28.4550724483
260 1 7.1137681121 17.7844200134 32.0119551706
261 1 7.1137681121 21.3413048698 0.0
262 1 7.1137681121 21.3413048698 3.5568840383
263 1 7.1137681121 21.3413048698 7.1137681121
264 1 7.1137681121 21.3413048698 10.6706524349
265 1 7.1137681121 21.3413048698 14.2275362242
266 1 7.1137681121 21.3413048698 17.7844200134
267 1 7.1137681121 21.3413048698 21.3413048698
268 1 7.1137681121 21.3413048698 24.898187592
269 1 7.1137681121 21.3413048698 28.4550724483
270 1 7.1137681121 21.3413048698 32.0119551706
271 1 7.1137681121 24.898187592 0.0
272 1 7.1137681121 24.898187592 3.5568840383
273 1 7.1137681121 24.898187592 7.1137681121
274 1 7.1137681121 24.898187592 10.6706524349
275 1 7.1137681121 24.898187592 14.2275362242
276 1 7.1137681121 24.898187592 17.7844200134
277 1 7.1137681121 24.898187592 21.3413048698
278 1 7.1137681121 24.898187592 24.898187592
279 1 7.1137681121 24.898187592 28.4550724483
280 1 7.1137681121 24.898187592 32.0119551706
281 1 7.1137681121 28.4550724483 0.0
282 1 7.1137681121 28.4550724483 3.5568840383
283 1 7.1137681121 28.4550724483 7.1137681121
284 1 7.1137681121 28.4550724483 10.6706524349
285 1 7.1137681121 28.4550724483 14.2275362242
286 1 7.1137681121 28.4550724483 17.7844200134
287 1 7.1137681121 28.4550724483 21.3413048698
288 1 7.1137681121 28.4550724483 24.898187592
289 1 7.1137681121 28.4550724483 28.4550724483
290 1 7.1137681121 28.4550724483 32.0119551706
291 1 7.1137681121 32.0119551706 0.0
292 1 7.1137681121 32.0119551706 3.5568840383
293 1 7.1137681121 32.0119551706 7.1137681121
294 1 7.1137681121 32.0119551706 10.6706524349
295 1 7.1137681121 32.0119551706 14.2275362242
296 1 7.1137681121 32.0119551706 17.7844200134
297 1 7.1137681121 32.0119551706 21.3413048698
298 1 7.1137681121 32.0119551706 24.898187592
299 1 7.1137681121 32.0119551706 28.4550724483
300 1 7.1137681121 32.0119551706 32.0119551706
301 1 10.6706524349 0.0 0.0
302 1 10.6706524349 0.0 3.5568840383
303 1 10.6706524349 0.0 7.1137681121
304 1 10.6706524349 0.0 10.6706524349
305 1 10.6706524349 0.0 14.2275362242
306 1 10.6706524349 0.0 17.7844200134
307 1 10.6706524349 0.0 21.3413048698
308 1 10.6706524349 0.0 24.898187592
309 1 10.6706524349 0.0 28.4550724483
310 1 10.6706524349 0.0 32.0119551706
311 1 10.6706524349 3.5568840383 0.0
312 1 10.6706524349 3.5568840383 3.5568840383
313 1 10.6706524349 3.5568840383 7.1137681121
314 1 10.6706524349 3.5568840383 10.6706524349
315 1 10.6706524349 3.5568840383 14.2275362242
316 1 10.6706524349 3.5568840383 17.7844200134
317 1 10.6706524349 3.5568840383 21.3413048698
318 1 10.6706524349 3.5568840383 24.898187592
319 1 10.6706524349 3.5568840383 28.4550724483
320 1 10.6706524349 3.5568840383 32.0119551706
321 1 10.6706524349 7.1137681121 0.0
322 1 10.6706524349 7.1137681121 3.5568840383
323 1 10.6706524349 7.1137681121 7.1137681121
324 1 10.6706524349 7.1137681121 10.6706524349
325 1 10.6706524349 7.1137681121 14.2275362242
326 1 10.6706524349 7.1137681121 17.7844200134
327 1 10.6706524349 7.1137681121 21.3413048698
328 1 10.6706524349 7.1137681121 24.898187592
329 1 10.6706524349 7.1137681121 28.4550724483
330 1 10.6706524349 7.1137681121 32.0119551706
331 1 10.6706524349 10.6706524349 0.0
332 1 10.6706524349 10.6706524349 3.5568840383
333 1 10.6706524349 10.6706524349 7.1137681121
334 1 10.6706524349 10.6706524349 10.6706524349
335 1 10.6706524349 10.6706524349 14.2275362242
336 1 10.6706524349 10.6706524349 17.7844200134
337 1 10.6706524349 10.6706524349 21.3413048698
338 1 10.6706524349 10.6706524349 24.898187592
339 1 10.6706524349 10.6706524349 28.4550724483
340 1 10.6706524349 10.6706524349 32.0119551706
341 1 10.6706524349 14.2275362242 0.0
342 1 10.6706524349 14.2275362242 3.5568840383
343 1 10.6706524349 14.2275362242 7.1137681121
344 1 10.6706524349 14.2275362242 10.6706524349
345 1 10.6706524349 14.2275362242 14.2275362242
346 1 10.6706524349 14.2275362242 17.7844200134
347 1 10.6706524349 14.2275362242 21.3413048698
348 1 10.6706524349 14.2275362242 24.898187592
349 1 10.6706524349 14.2275362242 28.4550724483
350 1 10.6706524349 14.2275362242 32.0119551706
351 1 10.6706524349 17.7844200134 0.0
352 1 10.6706524349 17.7844200134 3.5568840383
353 1 10.6706524349 17.7844200134 7.1137681121
354 1 10.6706524349 17.7844200134 10.6706524349
355 1 10.6706524349 17.7844200134 14.2275362242
356 1 10.6706524349 17.7844200134 17.7844200134
357 1 10.6706524349 17.7844200134 21.3413048698
358 1 10.6706524349 17.7844200134 24.898187592
359 1 10.6706524349 17.7844200134 28.4550724483
360 1 10.6706524349 17.7844200134 32.0119551706
361 1 10.6706524349 21.3413048698 0.0
362 1 10.6706524349 21.3413048698 3.5568840383
363 1 10.6706524349 21.3413048698 7.1137681121
364 1 10.6706524349 21.3413048698 10.6706524349
365 1 10.6706524349 21.3413048698 14.2275362242
366 1 10.6706524349 21.3413048698 17.7844200134
367 1 10.6706524349 21.3413048698 21.3413048698
368 1 10.6706524349 21.3413048698 24.898187592
369 1 10.6706524349 21.3413048698 28.4550724483
370 1 10.6706524349 21.3413048698 32.0119551706
371 1 10.6706524349 24.898187592 0.0
372 1 10.6706524349 24.898187592 3.5568840383
373 1 10.6706524349 24.898187592 7.1137681121
374 1 10.6706524349 24.898187592 10.6706524349
375 1 10.6706524349 24.898187592 14.2275362242
376 1 10.6706524349 24.898187592 17.7844200134
377 1 10.6706524349 24.898187592 21.3413048698
378 1 10.6706524349 24.898187592 24.898187592
379 1 10.6706524349 24.898187592 28.4550724483
380 1 10.6706524349 24.898187592 32.0119551706
381 1 10.6706524349 28.4550724483 0.0
382 1 10.6706524349 28.4550724483 3.5568840383
383 1 10.6706524349 28.4550724483 7.1137681121
384 1 10.6706524349 28.4550724483 10.6706524349
385 1 10.6706524349 28.4550724483 14.2275362242
386 1 10.6706524349 28.4550724483 17.7844200134
387 1 10.6706524349 28.4550724483 21.3413048698
388 1 10.6706524349 28.4550724483 24.898187592
389 1 10.6706524349 28.4550724483 28.4550724483
390 1 10.6706524349 28.4550724483 32.0119551706
391 1 10.6706524349 32.0119551706 0.0
392 1 10.6706524349 32.0119551706 3.5568840383
393 1 10.6706524349 32.0119551706 7.1137681121
394 1 10.6706524349 32.0119551706 10.6706524349
395 1 10.6706524349 32.0119551706 14.2275362242
396 1 10.6706524349 32.0119551706 17.7844200134
397 1 10.6706524349 32.0119551706 21.3413048698
398 1 10.6706524349 32.0119551706 24.898187592
399 1 10.6706524349 32.0119551706 28.4550724483
400 1 10.6706524349 32.0119551706 32.0119551706
401 1 14.2275362242 0.0 0.0
402 1 14.2275362242 0.0 3.5568840383
403 1 14.2275362242 0.0 7.1137681121
404 1 14.2275362242 0.0 10.6706524349
405 1 14.2275362242 0.0 14.2275362242
406 1 14.2275362242 0.0 17.7844200134
407 1 14.2275362242 0.0 21.3413048698
408 1 14.2275362242 0.0 24.898187592
409 1 14.2275362242 0.0 28.4550724483
410 1 14.2275362242 0.0 32.0119551706
411 1 14.2275362242 3.5568840383 0.0
412 1 14.2275362242 3.5568840383 3.5568840383
413 1 14.2275362242 3.5568840383 7.1137681121
414 1 14.2275362242 3.5568840383 10.6706524349
415 1 14.2275362242 3.5568840383 14.2275362242
416 1 14.2275362242 3.5568840383 17.7844200134
417 1 14.2275362242 3.5568840383 21.3413048698
418 1 14.2275362242 3.5568840383 24.898187592
419 1 14.2275362242 3.5568840383 28.4550724483
420 1 14.2275362242 3.5568840383 32.0119551706
421 1 14.2275362242 7.1137681121 0.0
422 1 14.2275362242 7.1137681121 3.5568840383
423 1 14.2275362242 7.1137681121 7.1137681121
424 1 14.2275362242 7.1137681121 10.6706524349
425 1 14.2275362242 7.1137681121 14.2275362242
426 1 14.2275362242 7.1137681121 17.7844200134
427 1 14.2275362242 7.1137681121 21.3413048698
428 1 14.2275362242 7.1137681121 24.898187592
429 1 14.2275362242 7.1137681121 28.4550724483
430 1 14.2275362242 7.1137681121 32.0119551706
431 1 14.2275362242 10.6706524349 0.0
432 1 14.2275362242 10.6706524349 3.5568840383
433 1 14.2275362242 10.6706524349 7.1137681121
434 1 14.2275362242 10.6706524349 10.6706524349
435 1 14.2275362242 10.6706524349 14.2275362242
436 1 14.2275362242 10.6706524349 17.7844200134
437 1 14.2275362242 10.6706524349 21.3413048698
438 1 14.2275362242 10.6706524349 24.898187592
439 1 14.2275362242 10.6706524349 28.4550724483
440 1 14.2275362242 10.6706524349 32.0119551706
441 1 14.2275362242 14.2275362242 0.0
442 1 14.2275362242 14.2275362242 3.5568840383
443 1 14.2275362242 14.2275362242 7.1137681121
444 1 14.2275362242 14.2275362242 10.6706524349
445 1 14.2275362242 14.2275362242 14.2275362242
446 1 14.2275362242 14.2275362242 17.7844200134
447 1 14.2275362242 14.2275362242 21.3413048698
448 1 14.2275362242 14.2275362242 24.898187592
449 1 14.2275362242 14.2275362242 28.4550724483
450 1 14.2275362242 14.2275362242 32.0119551706
451 1 14.2275362242 17.7844200134 0.0
452 1 14.2275362242 17.7844200134 3.5568840383
453 1 14.2275362242 17.7844200134 7.1137681121
454 1 14.2275362242 17.7844200134 10.6706524349
455 1 14.2275362242 17.7844200134 14.2275362242
456 1 14.2275362242 17.7844200134 17.7844200134
457 1 14.2275362242 17.7844200134 21.3413048698
458 1 14.2275362242 17.7844200134 24.898187592
459 1 14.2275362242 17.7844200134 28.4550724483
460 1 14.2275362242 17.7844200134 32.0119551706
461 1 14.2275362242 21.3413048698 0.0
462 1 14.2275362242 21.3413048698 3.5568840383
463 1 14.2275362242 21.3413048698 7.1137681121
464 1 14.2275362242 21.3413048698 10.6706524349
465 1 14.2275362242 21.3413048698 14.2275362242
466 1 14.2275362242 21.3413048698 17.7844200134
467 1 14.2275362242 21.3413048698 21.3413048698
468 1 14.2275362242 21.3413048698 24.898187592
469 1 14.2275362242 21.3413048698 28.4550724483
470 1 14.2275362242 21.3413048698 32.0119551706
471 1 14.2275362242 24.898187592 0.0
472 1 14.2275362242 24.898187592 3.5568840383
473 1 14.2275362242 24.898187592 7.1137681121
474 1 14.2275362242 24.898187592 10.6706524349
475 1 14.2275362242 24.898187592 14.2275362242
476 1 14.2275362242 24.898187592 17.7844200134
477 1 14.2275362242 24.898187592 21.3413048698
478 1 14.2275362242 24.898187592 24.898187592
479 1 14.2275362242 24.898187592 28.4550724483
480 1 14.2275362242 24.898187592 32.0119551706
481 1 14.2275362242 28.4550724483 0.0
482 1 14.2275362242 28.4550724483 3.5568840383
483 1 14.2275362242 28.4550724483 7.1137681121
484 1 14.2275362242 28.4550724483 10.6706524349
485 1 14.2275362242 28.4550724483 14.2275362242
486 1 14.2275362242 28.4550724483 17.7844200134
487 1 14.2275362242 28.4550724483 21.3413048698
488 1 14.2275362242 28.4550724483 24.898187592
489 1 14.2275362242 28.4550724483 28.4550724483
490 1 14.2275362242 28.4550724483 32.0119551706
491 1 14.2275362242 32.0119551706 0.0
492 1 14.2275362242 32.0119551706 3.5568840383
493 1 14.2275362242 32.0119551706 7.1137681121
494 1 14.2275362242 32.0119551706 10.6706524349
495 1 14.2275362242 32.0119551706 14.2275362242
496 1 14.2275362242 32.0119551706 17.7844200134
497 1 14.2275362242 32.0119551706 21.3413048698
498 1 14.2275362242 32.0119551706 24.898187592
499 1 14.2275362242 32.0119551706 28.4550724483
500 1 14.2275362242 32.0119551706 32.0119551706
501 1 17.7844200134 0.0 0.0
502 1 17.7844200134 0.0 3.5568840383
503 1 17.7844200134 0.0 7.1137681121
504 1 17.7844200134 0.0 10.6706524349
505 1 17.7844200134 0.0 14.2275362242
506 1 17.7844200134 0.0 17.7844200134
507 1 17.7844200134 0.0 21.3413048698
508 1 17.7844200134 0.0 24.898187592
509 1 17.7844200134 0.0 28.4550724483
510 1 17.7844200134 0.0 32.0119551706
511 1 17.7844200134 3.5568840383 0.0
512 1 17.7844200134 3.5568840383 3.5568840383
513 1 17.7844200134 3.5568840383 7.1137681121
514 1 17.7844200134 3.5568840383 10.6706524349
515 1 17.7844200134 3.5568840383 14.2275362242
516 1 17.7844200134 3.5568840383 17.7844200134
517 1 17.7844200134 3.5568840383 21.3413048698
518 1 17.7844200134 3.5568840383 24.898187592
519 1 17.7844200134 3.5568840383 28.4550724483
520 1 17.7844200134 3.5568840383 32.0119551706
521 1 17.7844200134 7.1137681121 0.0
522 1 17.7844200134 7.1137681121 3.5568840383
523 1 17.7844200134 7.1137681121 7.1137681121
524 1 17.7844200134 7.1137681121 10.6706524349
525 1 17.7844200134 7.1137681121 14.2275362242
526 1 17.7844200134 7.1137681121 17.7844200134
527 1 17.7844200134 7.1137681121 21.3413048698
528 1 17.7844200134 7.1137681121 24.898187592
529 1 17.7844200134 7.1137681121 28.4550724483
530 1 17.7844200134 7.1137681121 32.0119551706
531 1 17.7844200134 10.6706524349 0.0
532 1 17.7844200134 10.6706524349 3.5568840383
533 1 17.7844200134 10.6706524349 7.1137681121
534 1 17.7844200134 10.6706524349 10.6706524349
535 1 17.7844200134 10.6706524349 14.2275362242
536 1 17.7844200134 10.6706524349 17.7844200134
537 1 17.7844200134 10.6706524349 21.3413048698
538 1 17.7844200134 10.6706524349 24.898187592
539 1 17.7844200134 10.6706524349 28.4550724483
540 1 17.7844200134 10.6706524349 32.0119551706
541 1 17.7844200134 14.2275362242 0.0
542 1 17.7844200134 14.2275362242 3.5568840383
543 1 17.7844200134 14.2275362242 7.1137681121
544 1 17.7844200134 14.2275362242 10.6706524349
545 1 17.7844200134 14.2275362242 14.2275362242
546 1 17.7844200134 14.2275362242 17.7844200134
547 1 17.7844200134 14.2275362242 21.3413048698
548 1 17.7844200134 14.2275362242 24.898187592
549 1 17.7844200134 14.2275362242 28.4550724483
550 1 17.7844200134 14.2275362242 32.0119551706
551 1 17.7844200134 17.7844200134 0.0
552 1 17.7844200134 17.7844200134 3.5568840383
553 1 17.7844200134 17.7844200134 7.1137681121
554 1 17.7844200134 17.7844200134 10.6706524349
555 1 17.7844200134 17.7844200134 14.2275362242
556 1 17.7844200134 17.7844200134 17.7844200134
557 1 17.7844200134 17.7844200134 21.3413048698
558 1 17.7844200134 17.7844200134 24.898187592
559 1 17.7844200134 17.7844200134 28.4550724483
560 1 17.7844200134 17.7844200134 32.0119551706
561 1 17.7844200134 21.3413048698 0.0
562 1 17.7844200134 21.3413048698 3.5568840383
563 1 17.7844200134 21.3413048698 7.1137681121
564 1 17.7844200134 21.3413048698 10.6706524349
565 1 17.7844200134 21.3413048698 14.2275362242
566 1 17.7844200134 21.3413048698 17.7844200134
567 1 17.7844200134 21.3413048698 21.3413048698
568 1 17.7844200134 21.3413048698 24.898187592
569 1 17.7844200134 21.3413048698 28.4550724483
570 1 17.7844200134 21.3413048698 32.0119551706
571 1 17.7844200134 24.898187592 0.0
572 1 17.7844200134 24.898187592 3.5568840383
573 1 17.7844200134 24.898187592 7.1137681121
574 1 17.7844200134 24.898187592 10.6706524349
575 1 17.7844200134 24.898187592 14.2275362242
576 1 17.7844200134 24.898187592 17.7844200134
577 1 17.7844200134 24.898187592 21.3413048698
578 1 17.7844200134 24.898187592 24.898187592
579 1 17.7844200134 24.898187592 28.4550724483
580 1 17.7844200134 24.898187592 32.0119551706
581 1 17.7844200134 28.4550724483 0.0
582 1 17.7844200134 28.4550724483 3.5568840383
583 1 17.7844200134 28.4550724483 7.1137681121
584 1 17.7844200134 28.4550724483 10.6706524349
585 1 17.7844200134 28.4550724483 14.2275362242
586 1 17.7844200134 28.4550724483 17.7844200134
587 1 17.7844200134 28.4550724483 21.3413048698
588 1 17.7844200134 28.4550724483 24.898187592
589 1 17.7844200134 28.4550724483 28.4550724483
590 1 17.7844200134 28.4550724483 32.0119551706
591 1 17.7844200134 32.0119551706 0.0
592 1 17.7844200134 32.0119551706 3.5568840383
593 1 17.7844200134 32.0119551706 7.1137681121
594 1 17.7844200134 32.0119551706 10.6706524349
595 1 17.7844200134 32.0119551706 14.2275362242
596 1 17.7844200134 32.0119551706 17.7844200134
597 1 17.7844200134 32.0119551706 21.3413048698
598 1 17.7844200134 32.0119551706 24.898187592
599 1 17.7844200134 32.0119551706 28.4550724483
600 1 17.7844200134 32.0119551706 32.0119551706
601 1 21.3413048698 0.0 0.0
602 1 21.3413048698 0.0 3.5568840383
603 1 21.3413048698 0.0 7.1137681121
604 1 21.3413048698 0.0 10.6706524349
605 1 21.3413048698 0.0 14.2275362242
606 1 21.3413048698 0.0 17.7844200134
607 1 21.3413048698 0.0 21.3413048698
608 1 21.3413048698 0.0 24.898187592
609 1 21.3413048698 0.0 28.4550724483
610 1 21.3413048698 0.0 32.0119551706
611 1 21.3413048698 3.5568840383 0.0
612 1 21.3413048698 3.5568840383 3.5568840383
613 1 21.3413048698 3.5568840383 7.1137681121
614 1 21.3413048698 3.5568840383 10.6706524349
615 1 21.3413048698 3.5568840383 14.2275362242
616 1 21.3413048698 3.5568840383 17.7844200134
617 1 21.3413048698 3.5568840383 21.3413048698
618 1 21.3413048698 3.5568840383 24.898187592
619 1 21.3413048698 3.5568840383 28.4550724483
620 1 21.3413048698 3.5568840383 32.0119551706
621 1 21.3413048698 7.1137681121 0.0
622 1 21.3413048698 7.1137681121 3.5568840383
623 1 21.3413048698 7.1137681121 7.1137681121
624 1 21.3413048698 7.1137681121 10.6706524349
625 1 21.3413048698 7.1137681121 14.2275362242
626 1 21.3413048698 7.1137681121 17.7844200134
627 1 21.3413048698 7.1137681121 21.3413048698
628 1 21.3413048698 7.1137681121 24.898187592
629 1 21.3413048698 7.1137681121 28.4550724483
630 1 21.3413048698 7.1137681121 32.0119551706
631 1 21.3413048698 10.6706524349 0.0
632 1 21.3413048698 10.6706524349 3.5568840383
633 1 21.3413048698 10.6706524349 7.1137681121
634 1 21.3413048698 10.6706524349 10.6706524349
635 1 21.3413048698 10.6706524349 14.2275362242
636 1 21.3413048698 10.6706524349 17.7844200134
637 1 21.3413048698 10.6706524349 21.3413048698
638 1 21.3413048698 10.6706524349 24.898187592
639 1 21.3413048698 10.6706524349 28.4550724483
640 1 21.3413048698 10.6706524349 32.0119551706
641 1 21.3413048698 14.2275362242 0.0
642 1 21.3413048698 14.2275362242 3.5568840383
643 1 21.3413048698 14.2275362242 7.1137681121
644 1 21.3413048698 14.2275362242 10.6706524349
645 1 21.3413048698 14.2275362242 14.2275362242
646 1 21.3413048698 14.2275362242 17.7844200134
647 1 21.3413048698 14.2275362242 21.3413048698
648 1 21.3413048698 14.2275362242 24.898187592
649 1 21.3413048698 14.2275362242 28.4550724483
650 1 21.3413048698 14.2275362242 32.0119551706
651 1 21.3413048698 17.7844200134 0.0
652 1 21.3413048698 17.7844200134 3.5568840383
653 1 21.3413048698 17.7844200134 7.1137681121
654 1 21.3413048698 17.7844200134 10.6706524349
655 1 21.3413048698 17.7844200134 14.2275362242
656 1 21.3413048698 17.7844200134 17.7844200134
657 1 21.3413048698 17.7844200134 21.3413048698
658 1 21.3413048698 17.7844200134 24.898187592
659 1 21.3413048698 17.7844200134 28.4550724483
660 1 21.3413048698 17.7844200134 32.0119551706
661 1 21.3413048698 21.3413048698 0.0
662 1 21.3413048698 21.3413048698 3.5568840383
663 1 21.3413048698 21.3413048698 7.1137681121
664 1 21.3413048698 21.3413048698 10.6706524349
665 1 21.3413048698 21.3413048698 14.2275362242
666 1 21.3413048698 21.3413048698 17.7844200134
667 1 21.3413048698 21.3413048698 21.3413048698
668 1 21.3413048698 21.3413048698 24.898187592
669 1 21.3413048698 21.3413048698 28.4550724483
670 1 21.3413048698 21.3413048698 32.0119551706
671 1 21.3413048698 24.898187592 0.0
672 1 21.3413048698 24.898187592 3.5568840383
673 1 21.3413048698 24.898187592 7.1137681121
674 1 21.3413048698 24.898187592 10.6706524349
675 1 21.3413048698 24.898187592 14.2275362242
676 1 21.3413048698 24.898187592 17.7844200134
677 1 21.3413048698 24.898187592 21.3413048698
678 1 21.3413048698 24.898187592 24.898187592
679 1 21.3413048698 24.898187592 28.4550724483
680 1 21.3413048698 24.898187592 32.0119551706
681 1 21.3413048698 28.4550724483 0.0
682 1 21.3413048698 28.4550724483 3.5568840383
683 1 21.3413048698 28.4550724483 7.1137681121
684 1 21.3413048698 28.4550724483 10.6706524349
685 1 21.3413048698 28.4550724483 14.2275362242
686 1 21.3413048698 28.4550724483 17.7844200134
687 1 21.3413048698 28.4550724483 21.3413048698
688 1 21.3413048698 28.4550724483 24.898187592
689 1 21.3413048698 28.4550724483 28.4550724483
690 1 21.3413048698 28.4550724483 32.0119551706
691 1 21.3413048698 32.0119551706 0.0
692 1 21.3413048698 32.0119551706 3.5568840383
693 1 21.3413048698 32.0119551706 7.1137681121
694 1 21.3413048698 32.0119551706 10.6706524349
695 1 21.3413048698 32.0119551706 14.2275362242
696 1 21.3413048698 32.0119551706 17.7844200134
697 1 21.3413048698 32.0119551706 21.3413048698
698 1 21.3413048698 32.0119551706 24.898187592
699 1 21.3413048698 32.0119551706 28.4550724483
700 1 21.3413048698 32.0119551706 32.0119551706
701 1 24.898187592 0.0 0.0
702 1 24.898187592 0.0 3.5568840383
703 1 24.898187592 0.0 7.1137681121
704 1 24.898187592 0.0 10.6706524349
705 1 24.898187592 0.0 14.2275362242
706 1 24.898187592 0.0 17.7844200134
707 1 24.898187592 0.0 21.3413048698
708 1 24.898187592 0.0 24.898187592
709 1 24.898187592 0.0 28.4550724483
710 1 24.898187592 0.0 32.0119551706
711 1 24.898187592 3.5568840383 0.0
712 1 24.898187592 3.5568840383 3.5568840383
713 1 24.898187592 3.5568840383 7.1137681121
714 1 24.898187592 3.5568840383 10.6706524349
715 1 24.898187592 3.5568840383 14.2275362242
716 1 24.898187592 3.5568840383 17.7844200134
717 1 24.898187592 3.5568840383 21.3413048698
718 1 24.898187592 3.5568840383 24.898187592
719 1 24.898187592 3.5568840383 28.4550724483
720 1 24.898187592 3.5568840383 32.0119551706
721 1 24.898187592 7.1137681121 0.0
722 1 24.898187592 7.1137681121 3.5568840383
723 1 24.898187592 7.1137681121 7.1137681121
724 1 24.898187592 7.1137681121 10.6706524349
725 1 24.898187592 7.1137681121 14.2275362242
726 1 24.898187592 7.1137681121 17.7844200134
727 1 24.898187592 7.1137681121 21.3413048698
728 1 24.898187592 7.1137681121 24.898187592
729 1 24.898187592 7.1137681121 28.4550724483
730 1 24.898187592 7.1137681121 32.0119551706
731 1 24.898187592 10.6706524349 0.0
732 1 24.898187592 10.6706524349 3.5568840383
733 1 24.898187592 10.6706524349 7.1137681121
734 1 24.898187592 10.6706524349 10.6706524349
735 1 24.898187592 10.6706524349 14.2275362242
736 1 24.898187592 10.6706524349 17.7844200134
737 1 24.898187592 10.6706524349 21.3413048698
738 1 24.898187592 10.6706524349 24.898187592
739 1 24.898187592 10.6706524349 28.4550724483
740 1 24.898187592 10.6706524349 32.0119551706
741 1 24.898187592 14.2275362242 0.0
742 1 24.898187592 14.2275362242 3.5568840383
743 1 24.898187592 14.2275362242 7.1137681121
744 1 24.898187592 14.2275362242 10.6706524349
745 1 24.898187592 14.2275362242 14.2275362242
746 1 24.898187592 14.2275362242 17.7844200134
747 1 24.898187592 14.2275362242 21.3413048698
748 1 24.898187592 14.2275362242 24.898187592
749 1 24.898187592 14.2275362242 28.4550724483
750 1 24.898187592 14.2275362242 32.0119551706
751 1 24.898187592 17.7844200134 0.0
752 1 24.898187592 17.7844200134 3.5568840383
753 1 24.898187592 17.7844200134 7.1137681121
754 1 24.898187592 17.7844200134 10.6706524349
755 1 24.898187592 17.7844200134 14.2275362242
756 1 24.898187592 17.7844200134 17.7844200134
757 1 24.898187592 17.7844200134 21.3413048698
758 1 24.898187592 17.7844200134 24.898187592
759 1 24.898187592 17.7844200134 28.4550724483
760 1 24.898187592 17.7844200134 32.0119551706
761 1 24.898187592 21.3413048698 0.0
762 1 24.898187592 21.3413048698 3.5568840383
763 1 24.898187592 21.3413048698 7.1137681121
764 1 24.898187592 21.3413048698 10.6706524349
765 1 24.898187592 21.3413048698 14.2275362242
766 1 24.898187592 21.3413048698 17.7844200134
767 1 24.898187592 21.3413048698 21.3413048698
768 1 24.898187592 21.3413048698 24.898187592
769 1 24.898187592 21.3413048698 28.4550724483
770 1 24.898187592 21.3413048698 32.0119551706
771 1 24.898187592 24.898187592 0.0
772 1 24.898187592 24.898187592 3.5568840383
773 1 24.898187592 24.898187592 7.1137681121
774 1 24.898187592 24.898187592 10.6706524349
775 1 24.898187592 24.898187592 14.2275362242
776 1 24.898187592 24.898187592 17.7844200134
777 1 24.898187592 24.898187592 21.3413048698
778 1 24.898187592 24.898187592 24.898187592
779 1 24.898187592 24.898187592 28.4550724483
780 1 24.898187592 24.898187592 32.0119551706
781 1 24.898187592 28.4550724483 0.0
782 1 24.898187592 28.4550724483 3.5568840383
783 1 24.898187592 28.4550724483 7.1137681121
784 1 24.898187592 28.4550724483 10.6706524349
785 1 24.898187592 28.4550724483 14.2275362242
786 1 24.898187592 28.4550724483 17.7844200134
787 1 24.898187592 28.4550724483 21.3413048698
788 1 24.898187592 28.4550724483 24.898187592
789 1 24.898187592 28.4550724483 28.4550724483
790 1 24.898187592 28.4550724483 32.0119551706
791 1 24.898187592 32.0119551706 0.0
792 1 24.898187592 32.0119551706 3.5568840383
793 1 24.898187592 32.0119551706 7.1137681121
794 1 24.898187592 32.0119551706 10.6706524349
795 1 24.898187592 32.0119551706 14.2275362242
796 1 24.898187592 32.0119551706 17.7844200134
797 1 24.898187592 32.0119551706 21.3413048698
798 1 24.898187592 32.0119551706 24.898187592
799 1 24.898187592 32.0119551706 28.4550724483
800 1 24.898187592 32.0119551706 32.0119551706
801 1 28.4550724483 0.0 0.0
802 1 28.4550724483 0.0 3.5568840383
803 1 28.4550724483 0.0 7.1137681121
804 1 28.4550724483 0.0 10.6706524349
805 1 28.4550724483 0.0 14.2275362242
806 1 28.4550724483 0.0 17.7844200134
807 1 28.4550724483 0.0 21.3413048698
808 1 28.4550724483 0.0 24.898187592
809 1 28.4550724483 0.0 28.4550724483
810 1 28.4550724483 0.0 32.0119551706
811 1 28.4550724483 3.5568840383 0.0
812 1 28.4550724483 3.5568840383 3.5568840383
813 1 28.4550724483 3.5568840383 7.1137681121
814 1 28.4550724483 3.5568840383 10.6706524349
815 1 28.4550724483 3.5568840383 14.2275362242
816 1 28.4550724483 3.5568840383 17.7844200134
817 1 28.4550724483 3.5568840383 21.3413048698
818 1 28.4550724483 3.5568840383 24.898187592
819 1 28.4550724483 3.5568840383 28.4550724483
820 1 28.4550724483 3.5568840383 32.0119551706
821 1 28.4550724483 7.1137681121 0.0
822 1 28.4550724483 7.1137681121 3.5568840383
823 1 28.4550724483 7.1137681121 7.1137681121
824 1 28.4550724483 7.1137681121 10.6706524349
825 1 28.4550724483 7.1137681121 14.2275362242
826 1 28.4550724483 7.1137681121 17.7844200134
827 1 28.4550724483 7.1137681121 21.3413048698
828 1 28.4550724483 7.1137681121 24.898187592
829 1 28.4550724483 7.1137681121 28.4550724483
830 1 28.4550724483 7.1137681121 32.0119551706
831 1 28.4550724483 10.6706524349 0.0
832 1 28.4550724483 10.6706524349 3.5568840383
833 1 28.4550724483 10.6706524349 7.1137681121
834 1 28.4550724483 10.6706524349 10.6706524349
835 1 28.4550724483 10.6706524349 14.2275362242
836 1 28.4550724483 10.6706524349 17.7844200134
837 1 28.4550724483 10.6706524349 21.3413048698
838 1 28.4550724483 10.6706524349 24.898187592
839 1 28.4550724483 10.6706524349 28.4550724483
840 1 28.4550724483 10.6706524349 32.0119551706
841 1 28.4550724483 14.2275362242 0.0
842 1 28.4550724483 14.2275362242 3.5568840383
843 1 28.4550724483 14.2275362242 7.1137681121
844 1 28.4550724483 14.2275362242 10.6706524349
845 1 28.4550724483 14.2275362242 14.2275362242
846 1 28.4550724483 14.2275362242 17.7844200134
847 1 28.4550724483 14.2275362242 21.3413048698
848 1 28.4550724483 14.2275362242 24.898187592
849 1 28.4550724483 14.2275362242 28.4550724483
850 1 28.4550724483 14.2275362242 32.0119551706
851 1 28.4550724483 17.7844200134 0.0
852 1 28.4550724483 17.7844200134 3.5568840383
853 1 28.4550724483 17.7844200134 7.1137681121
854 1 28.4550724483 17.7844200134 10.6706524349
855 1 28.4550724483 17.7844200134 14.2275362242
856 1 28.4550724483 17.7844200134 17.7844200134
857 1 28.4550724483 17.7844200134 21.3413048698
858 1 28.4550724483 17.7844200134 24.898187592
859 1 28.4550724483 17.7844200134 28.4550724483
860 1 28.4550724483 17.7844200134 32.0119551706
861 1 28.4550724483 21.3413048698 0.0
862 1 28.4550724483 21.3413048698 3.5568840383
863 1 28.4550724483 21.3413048698 7.1137681121
864 1 28.4550724483 21.3413048698 10.6706524349
865 1 28.4550724483 21.3413048698 14.2275362242
866 1 28.4550724483 21.3413048698 17.7844200134
867 1 28.4550724483 21.3413048698 21.3413048698
868 1 28.4550724483 21.3413048698 24.898187592
869 1 28.4550724483 21.3413048698 28.4550724483
870 1 28.4550724483 21.3413048698 32.0119551706
871 1 28.4550724483 24.898187592 0.0
872 1 28.4550724483 24.898187592 3.5568840383
873 1 28.4550724483 24.898187592 7.1137681121
874 1 28.4550724483 24.898187592 10.6706524349
875 1 28.4550724483 24.898187592 14.2275362242
876 1 28.4550724483 24.898187592 17.7844200134
877 1 28.4550724483 24.898187592 21.3413048698
878 1 28.4550724483 24.898187592 24.898187592
879 1 28.4550724483 24.898187592 28.4550724483
880 1 28.4550724483 24.898187592 32.0119551706
881 1 28.4550724483 28.4550724483 0.0
882 1 28.4550724483 28.4550724483 3.5568840383
883 1 28.4550724483 28.4550724483 7.1137681121
884 1 28.4550724483 28.4550724483 10.6706524349
885 1 28.4550724483 28.4550724483 14.2275362242
886 1 28.4550724483 28.4550724483 17.7844200134
887 1 28.4550724483 28.4550724483 21.3413048698
888 1 28.4550724483 28.4550724483 24.898187592
889 1 28.4550724483 28.4550724483 28.4550724483
890 1 28.4550724483 28.4550724483 32.0119551706
891 1 28.4550724483 32.0119551706 0.0
892 1 28.4550724483 32.0119551706 3.5568840383
893 1 28.4550724483 32.0119551706 7.1137681121
894 1 28.4550724483 32.0119551706 10.6706524349
895 1 28.4550724483 32.0119551706 14.2275362242
896 1 28.4550724483 32.0119551706 17.7844200134
897 1 28.4550724483 32.0119551706 21.3413048698
898 1 28.4550724483 32.0119551706 24.898187592
899 1 28.4550724483 32.0119551706 28.4550724483
900 1 28.4550724483 32.0119551706 32.0119551706
901 1 32.0119551706 0.0 0.0
902 1 32.0119551706 0.0 3.5568840383
903 1 32.0119551706 0.0 7.1137681121
904 1 32.0119551706 0.0 10.6706524349
905 1 32.0119551706 0.0 14.2275362242
906 1 32.0119551706 0.0 17.7844200134
907 1 32.0119551706 0.0 21.3413048698
908 1 32.0119551706 0.0 24.898187592
909 1 32.0119551706 0.0 28.4550724483
910 1 32.0119551706 0.0 32.0119551706
911 1 32.0119551706 3.5568840383 0.0
912 1 32.0119551706 3.5568840383 3.5568840383
913 1 32.0119551706 3.5568840383 7.1137681121
914 1 32.0119551706 3.5568840383 10.6706524349
915 1 32.0119551706 3.5568840383 14.2275362242
916 1 32.0119551706 3.5568840383 17.7844200134
917 1 32.0119551706 3.5568840383 21.3413048698
918 1 32.0119551706 3.5568840383 24.898187592
919 1 32.0119551706 3.5568840383 28.4550724483
920 1 32.0119551706 3.5568840383 32.0119551706
921 1 32.0119551706 7.1137681121 0.0
922 1 32.0119551706 7.1137681121 3.5568840383
923 1 32.0119551706 7.1137681121 7.1137681121
924 1 32.0119551706 7.1137681121 10.6706524349
925 1 32.0119551706 7.1137681121 14.2275362242
926 1 32.0119551706 7.1137681121 17.7844200134
927 1 32.0119551706 7.1137681121 21.3413048698
928 1 32.0119551706 7.1137681121 24.898187592
929 1 32.0119551706 7.1137681121 28.4550724483
930 1 32.0119551706 7.1137681121 32.0119551706
931 1 32.0119551706 10.6706524349 0.0
932 1 32.0119551706 10.6706524349 3.5568840383
933 1 32.0119551706 10.6706524349 7.1137681121
934 1 32.0119551706 10.6706524349 10.6706524349
935 1 32.0119551706 10.6706524349 14.2275362242
936 1 32.0119551706 10.6706524349 17.7844200134
937 1 32.0119551706 10.6706524349 21.3413048698
938 1 32.0119551706 10.6706524349 24.898187592
939 1 32.0119551706 10.6706524349 28.4550724483
940 1 32.0119551706 10.6706524349 32.0119551706
941 1 32.0119551706 14.2275362242 0.0
942 1 32.0119551706 14.2275362242 3.5568840383
943 1 32.0119551706 14.2275362242 7.1137681121
944 1 32.0119551706 14.2275362242 10.6706524349
945 1 32.0119551706 14.2275362242 14.2275362242
946 1 32.0119551706 14.2275362242 17.7844200134
947 1 32.0119551706 14.2275362242 21.3413048698
948 1 32.0119551706 14.2275362242 24.898187592
949 1 32.0119551706 14.2275362242 28.4550724483
950 1 32.0119551706 14.2275362242 32.0119551706
951 1 32.0119551706 17.7844200134 0.0
952 1 32.0119551706 17.7844200134 3.5568840383
953 1 32.0119551706 17.7844200134 7.1137681121
954 1 32.0119551706 17.7844200134 10.6706524349
955 1 32.0119551706 17.7844200134 14.2275362242
956 1 32.0119551706 17.7844200134 17.7844200134
957 1 32.0119551706 17.7844200134 21.3413048698
958 1 32.0119551706 17.7844200134 24.898187592
959 1 32.0119551706 17.7844200134 28.4550724483
960 1 32.0119551706 17.7844200134 32.0119551706
961 1 32.0119551706 21.3413048698 0.0
962 1 32.0119551706 21.3413048698 3.5568840383
963 1 32.0119551706 21.3413048698 7.1137681121
964 1 32.0119551706 21.3413048698 10.6706524349
965 1 32.0119551706 21.3413048698 14.2275362242
966 1 32.0119551706 21.3413048698 17.7844200134
967 1 32.0119551706 21.3413048698 21.3413048698
968 1 32.0119551706 21.3413048698 24.898187592
969 1 32.0119551706 21.3413048698 28.4550724483
970 1 32.0119551706 21.3413048698 32.0119551706
971 1 32.0119551706 24.898187592 0.0
972 1 32.0119551706 24.898187592 3.5568840383
973 1 32.0119551706 24.898187592 7.1137681121
974 1 32.0119551706 24.898187592 10.6706524349
975 1 32.0119551706 24.898187592 14.2275362242
976 1 32.0119551706 24.898187592 17.7844200134
977 1 32.0119551706 24.898187592 21.3413048698
978 1 32.0119551706 24.898187592 24.898187592
979 1 32.0119551706 24.898187592 28.4550724483
980 1 32.0119551706 24.898187592 32.0119551706
981 1 32.0119551706 28.4550724483 0.0
982 1 32.0119551706 28.4550724483 3.5568840383
983 1 32.0119551706 28.4550724483 7.1137681121
984 1 32.0119551706 28.4550724483 10.6706524349
985 1 32.0119551706 28.4550724483 14.2275362242
986 1 32.0119551706 28.4550724483 17.7844200134
987 1 32.0119551706 28.4550724483 21.3413048698
988 1 32.0119551706 28.4550724483 24.898187592
989 1 32.0119551706 28.4550724483 28.4550724483
990 1 32.0119551706 28.4550724483 32.0119551706
991 1 32.0119551706 32.0119551706 0.0
992 1 32.0119551706 32.0119551706 3.5568840383
993 1 32.0119551706 32.0119551706 7.1137681121
994 1 32.0119551706 32.0119551706 10.6706524349
995 1 32.0119551706 32.0119551706 14.2275362242
996 1 32.0119551706 32.0119551706 17.7844200134
997 1 32.0119551706 32.0119551706 21.3413048698
998 1 32.0119551706 32.0119551706 24.898187592
999 1 32.0119551706 32.0119551706 28.4550724483
1000 1 32.0119551706 32.0119551706 32.0119551706
1001 1 0.0 1.7784420369 1.7784420369
1002 1 0.0 1.7784420369 5.3353262174
1003 1 0.0 1.7784420369 8.8922100067
1004 1 0.0 1.7784420369 12.449093796
1005 1 0.0 1.7784420369 16.0059775853
1006 1 0.0 1.7784420369 19.5628624416
1007 1 0.0 1.7784420369 23.1197451638
1008 1 0.0 1.7784420369 26.6766300202
1009 1 0.0 1.7784420369 30.2335148765
1010 1 0.0 1.7784420369 33.7903975987
1011 1 0.0 5.3353262174 1.7784420369
1012 1 0.0 5.3353262174 5.3353262174
1013 1 0.0 5.3353262174 8.8922100067
1014 1 0.0 5.3353262174 12.449093796
1015 1 0.0 5.3353262174 16.0059775853
1016 1 0.0 5.3353262174 19.5628624416
1017 1 0.0 5.3353262174 23.1197451638
1018 1 0.0 5.3353262174 26.6766300202
1019 1 0.0 5.3353262174 30.2335148765
1020 1 0.0 5.3353262174 33.7903975987
1021 1 0.0 8.8922100067 1.7784420369
1022 1 0.0 8.8922100067 5.3353262174
1023 1 0.0 8.8922100067 8.8922100067
1024 1 0.0 8.8922100067 12.449093796
1025 1 0.0 8.8922100067 16.0059775853
1026 1 0.0 8.8922100067 19.5628624416
1027 1 0.0 8.8922100067 23.1197451638
1028 1 0.0 8.8922100067 26.6766300202
1029 1 0.0 8.8922100067 30.2335148765
1030 1 0.0 8.8922100067 33.7903975987
1031 1 0.0 12.449093796 1.7784420369
1032 1 0.0 12.449093796 5.3353262174
1033 1 0.0 12.449093796 8.8922100067
1034 1 0.0 12.449093796 12.449093796
1035 1 0.0 12.449093796 16.0059775853
1036 1 0.0 12.449093796 19.5628624416
1037 1 0.0 12.449093796 23.1197451638
1038 1 0.0 12.449093796 26.6766300202
1039 1 0.0 12.449093796 30.2335148765
1040 1 0.0 12.449093796 33.7903975987
1041 1 0.0 16.0059775853 1.7784420369
1042 1 0.0 16.0059775853 5.3353262174
1043 1 0.0 16.0059775853 8.8922100067
1044 1 0.0 16.0059775853 12.449093796
1045 1 0.0 16.0059775853 16.0059775853
1046 1 0.0 16.0059775853 19.5628624416
1047 1 0.0 16.0059775853 23.1197451638
1048 1 0.0 16.0059775853 26.6766300202
1049 1 0.0 16.0059775853 30.2335148765
1050 1 0.0 16.0059775853 33.7903975987
1051 1 0.0 19.5628624416 1.7784420369
1052 1 0.0 19.5628624416 5.3353262174
1053 1 0.0 19.5628624416 8.8922100067
1054 1 0.0 19.5628624416 12.449093796
1055 1 0.0 19.5628624416 16.0059775853
1056 1 0.0 19.5628624416 19.5628624416
1057 1 0.0 19.5628624416 23.1197451638
1058 1 0.0 19.5628624416 26.6766300202
1059 1 0.0 19.5628624416 30.2335148765
1060 1 0.0 19.5628624416 33.7903975987
1061 1 0.0 23.1197451638 1.7784420369
1062 1 0.0 23.1197451638 5.3353262174
1063 1 0.0 23.1197451638 8.8922100067
1064 1 0.0 23.1197451638 12.449093796
1065 1 0.0 23.1197451638 16.0059775853
1066 1 0.0 23.1197451638 19.5628624416
1067 1 0.0 23.1197451638 23.1197451638
1068 1 0.0 23.1197451638 26.6766300202
1069 1 0.0 23.1197451638 30.2335148765
1070 1 0.0 23.1197451638 33.7903975987
1071 1 0.0 26.6766300202 1.7784420369
1072 1 0.0 26.6766300202 5.3353262174
1073 1 0.0 26.6766300202 8.8922100067
1074 1 0.0 26.6766300202 12.449093796
1075 1 0.0 26.6766300202 16.0059775853
1076 1 0.0 26.6766300202 19.5628624416
1077 1 0.0 26.6766300202 23.1197451638
1078 1 0.0 26.6766300202 26.6766300202
1079 1 0.0 26.6766300202 30.2335148765
1080 1 0.0 26.6766300202 33.7903975987
1081 1 0.0 30.2335148765 1.7784420369
1082 1 0.0 30.2335148765 5.3353262174
1083 1 0.0 30.2335148765 8.8922100067
1084 1 0.0 30.2335148765 12.449093796
1085 1 0.0 30.2335148765 16.0059775853
1086 1 0.0 30.2335148765 19.5628624416
1087 1 0.0 30.2335148765 23.1197451638
1088 1 0.0 30.2335148765 26.6766300202
1089 1 0.0 30.2335148765 30.2335148765
1090 1 0.0 30.2335148765 33.7903975987
1091 1 0.0 33.7903975987 1.7784420369
1092 1 0.0 33.7903975987 5.3353262174
1093 1 0.0 33.7903975987 8.8922100067
1094 1 0.0 33.7903975987 12.449093796
1095 1 0.0 33.7903975987 16.0059775853
1096 1 0.0 33.7903975987 19.5628624416
1097 1 0.0 33.7903975987 23.1197451638
1098 1 0.0 33.7903975987 26.6766300202
1099 1 0.0 33.7903975987 30.2335148765
1100 1 0.0 33.7903975987 33.7903975987
1101 1 3.5568840383 1.7784420369 1.7784420369
1102 1 3.5568840383 1.7784420369 5.3353262174
1103 1 3.5568840383 1.7784420369 8.8922100067
1104 1 3.5568840383 1.7784420369 12.449093796
1105 1 3.5568840383 1.7784420369 16.0059775853
1106 1 3.5568840383 1.7784420369 19.5628624416
1107 1 3.5568840383 1.7784420369 23.1197451638
1108 1 3.5568840383 1.7784420369 26.6766300202
1109 1 3.5568840383 1.7784420369 30.2335148765
1110 1 3.5568840383 1.7784420369 33.7903975987
1111 1 3.5568840383 5.3353262174 1.7784420369
1112 1 3.5568840383 5.3353262174 5.3353262174
1113 1 3.5568840383 5.3353262174 8.8922100067
1114 1 3.5568840383 5.3353262174 12.449093796
1115 1 3.5568840383 5.3353262174 16.0059775853
1116 1 3.5568840383 5.3353262174 19.5628624416
1117 1 3.5568840383 5.3353262174 23.1197451638
1118 1 3.5568840383 5.3353262174 26.6766300202
1119 1 3.5568840383 5.3353262174 30.2335148765
1120 1 3.5568840383 5.3353262174 33.7903975987
1121 1 3.5568840383 8.8922100067 1.7784420369
1122 1 3.5568840383 8.8922100067 5.3353262174
1123 1 3.5568840383 8.8922100067 8.8922100067
1124 1 3.5568840383 8.8922100067 12.449093796
1125 1 3.5568840383 8.8922100067 16.0059775853
1126 1 3.5568840383 8.8922100067 19.5628624416
1127 1 3.5568840383 8.8922100067 23.1197451638
1128 1 3.5568840383 8.8922100067 26.6766300202
1129 1 3.5568840383 8.8922100067 30.2335148765
1130 1 3.5568840383 8.8922100067 33.7903975987
1131 1 3.5568840383 12.449093796 1.7784420369
1132 1 3.5568840383 12.449093796 5.3353262174
1133 1 3.5568840383 12.449093796 8.8922100067
1134 1 3.5568840383 12.449093796 12.449093796
1135 1 3.5568840383 12.449093796 16.0059775853
1136 1 3.5568840383 12.449093796 19.5628624416
1137 1 3.5568840383 12.449093796 23.1197451638
1138 1 3.5568840383 12.449093796 26.6766300202
1139 1 3.5568840383 12.449093796 30.2335148765
1140 1 3.5568840383 12.449093796 33.7903975987
1141 1 3.5568840383 16.0059775853 1.7784420369
1142 1 3.5568840383 16.0059775853 5.3353262174
1143 1 3.5568840383 16.0059775853 8.8922100067
1144 1 3.5568840383 16.0059775853 12.449093796
1145 1 3.5568840383 16.0059775853 16.0059775853
1146 1 3.5568840383 16.0059775853 19.5628624416
1147 1 3.5568840383 16.0059775853 23.1197451638
1148 1 3.5568840383 16.0059775853 26.6766300202
1149 1 3.5568840383 16.0059775853 30.2335148765
1150 1 3.5568840383 16.0059775853 33.7903975987
1151 1 3.5568840383 19.5628624416 1.7784420369
1152 1 3.5568840383 19.5628624416 5.3353262174
1153 1 3.5568840383 19.5628624416 8.8922100067
1154 1 3.5568840383 19.5628624416 12.449093796
1155 1 3.5568840383 19.5628624416 16.0059775853
1156 1 3.5568840383 19.5628624416 19.5628624416
1157 1 3.5568840383 19.5628624416 23.1197451638
1158 1 3.5568840383 19.5628624416 26.6766300202
1159 1 3.5568840383 19.5628624416 30.2335148765
1160 1 3.5568840383 19.5628624416 33.7903975987
1161 1 3.5568840383 23.1197451638 1.7784420369
1162 1 3.5568840383 23.1197451638 5.3353262174
1163 1 3.5568840383 23.1197451638 8.8922100067
1164 1 3.5568840383 23.1197451638 12.449093796
1165 1 3.5568840383 23.1197451638 16.0059775853
1166 1 3.5568840383 23.1197451638 19.5628624416
1167 1 3.5568840383 23.1197451638 23.1197451638
1168 1 3.5568840383 23.1197451638 26.6766300202
1169 1 3.5568840383 23.1197451638 30.2335148765
1170 1 3.5568840383 23.1197451638 33.7903975987
1171 1 3.5568840383 26.6766300202 1.7784420369
1172 1 3.5568840383 26.6766300202 5.3353262174
1173 1 3.5568840383 26.6766300202 8.8922100067
1174 1 3.5568840383 26.6766300202 12.449093796
1175 1 3.5568840383 26.6766300202 16.0059775853
1176 1 3.5568840383 26.6766300202 19.5628624416
1177 1 3.5568840383 26.6766300202 23.1197451638
1178 1 3.5568840383 26.6766300202 26.6766300202
1179 1 3.5568840383 26.6766300202 30.2335148765
1180 1 3.5568840383 26.6766300202 33.7903975987
1181 1 3.5568840383 30.2335148765 1.7784420369
1182 1 3.5568840383 30.2335148765 5.3353262174
1183 1 3.5568840383 30.2335148765 8.8922100067
1184 1 3.5568840383 30.2335148765 12.449093796
1185 1 3.5568840383 30.2335148765 16.0059775853
1186 1 3.5568840383 30.2335148765 19.5628624416
1187 1 3.5568840383 30.2335148765 23.1197451638
1188 1 3.5568840383 30.2335148765 26.6766300202
1189 1 3.5568840383 30.2335148765 30.2335148765
1190 1 3.5568840383 30.2335148765 33.7903975987
1191 1 3.5568840383 33.7903975987 1.7784420369
1192 1 3.5568840383 33.7903975987 5.3353262174
1193 1 3.5568840383 33.7903975987 8.8922100067
1194 1 3.5568840383 33.7903975987 12.449093796
1195 1 3.5568840383 33.7903975987 16.0059775853
1196 1 3.5568840383 33.7903975987 19.5628624416
1197 1 3.5568840383 33.7903975987 23.1197451638
1198 1 3.5568840383 33.7903975987 26.6766300202
1199 1 3.5568840383 33.7903975987 30.2335148765
1200 1 3.5568840383 33.7903975987 33.7903975987
1201 1 7.1137681121 1.7784420369 1.7784420369
1202 1 7.1137681121 1.7784420369 5.3353262174
1203 1 7.1137681121 1.7784420369 8.8922100067
1204 1 7.1137681121 1.7784420369 12.449093796
1205 1 7.1137681121 1.7784420369 16.0059775853
1206 1 7.1137681121 1.7784420369 19.5628624416
1207 1 7.1137681121 1.7784420369 23.1197451638
1208 1 7.1137681121 1.7784420369 26.6766300202
1209 1 7.1137681121 1.7784420369 30.2335148765
1210 1 7.1137681121 1.7784420369 33.7903975987
1211 1 7.1137681121 5.3353262174 1.7784420369
1212 1 7.1137681121 5.3353262174 5.3353262174
1213 1 7.1137681121 5.3353262174 8.8922100067
1214 1 7.1137681121 5.3353262174 12.449093796
1215 1 7.1137681121 5.3353262174 16.0059775853
1216 1 7.1137681121 5.3353262174 19.5628624416
1217 1 7.1137681121 5.3353262174 23.1197451638
1218 1 7.1137681121 5.3353262174 26.6766300202
1219 1 7.1137681121 5.3353262174 30.2335148765
1220 1 7.1137681121 5.3353262174 33.7903975987
1221 1 7.1137681121 8.8922100067 1.7784420369
1222 1 7.1137681121 8.8922100067 5.3353262174
1223 1 7.1137681121 8.8922100067 8.8922100067
1224 1 7.1137681121 8.8922100067 12.449093796
1225 1 7.1137681121 8.8922100067 16.0059775853
1226 1 7.1137681121 8.8922100067 19.5628624416
1227 1 7.1137681121 8.8922100067 23.1197451638
1228 1 7.1137681121 8.8922100067 26.6766300202
1229 1 7.1137681121 8.8922100067 30.2335148765
1230 1 7.1137681121 8.8922100067 33.7903975987
1231 1 7.1137681121 12.449093796 1.7784420369
1232 1 7.1137681121 12.449093796 5.3353262174
1233 1 7.1137681121 12.449093796 8.8922100067
1234 1 7.1137681121 12.449093796 12.449093796
1235 1 7.1137681121 12.449093796 16.0059775853
1236 1 7.1137681121 12.449093796 19.5628624416
1237 1 7.1137681121 12.449093796 23.1197451638
1238 1 7.1137681121 12.449093796 26.6766300202
1239 1 7.1137681121 12.449093796 30.2335148765
1240 1 7.1137681121 12.449093796 33.7903975987
1241 1 7.1137681121 16.0059775853 1.7784420369
1242 1 7.1137681121 16.0059775853 5.3353262174
1243 1 7.1137681121 16.0059775853 8.8922100067
1244 1 7.1137681121 16.0059775853 12.449093796
1245 1 7.1137681121 16.0059775853 16.0059775853
1246 1 7.1137681121 16.0059775853 19.5628624416
1247 1 7.1137681121 16.0059775853 23.1197451638
1248 1 7.1137681121 16.0059775853 26.6766300202
1249 1 7.1137681121 16.0059775853 30.2335148765
1250 1 7.1137681121 16.0059775853 33.7903975987
1251 1 7.1137681121 19.5628624416 1.7784420369
1252 1 7.1137681121 19.5628624416 5.3353262174
1253 1 7.1137681121 19.5628624416 8.8922100067
1254 1 7.1137681121 19.5628624416 12.449093796
1255 1 7.1137681121 19.5628624416 16.0059775853
1256 1 7.1137681121 19.5628624416 19.5628624416
1257 1 7.1137681121 19.5628624416 23.1197451638
1258 1 7.1137681121 19.5628624416 26.6766300202
1259 1 7.1137681121 19.5628624416 30.2335148765
1260 1 7.1137681121 19.5628624416 33.7903975987
1261 1 7.1137681121 23.1197451638 1.7784420369
1262 1 7.1137681121 23.1197451638 5.3353262174
1263 1 7.1137681121 23.1197451638 8.8922100067
1264 1 7.1137681121 23.1197451638 12.449093796
1265 1 7.1137681121 23.1197451638 16.0059775853
1266 1 7.1137681121 23.1197451638 19.5628624416
1267 1 7.1137681121 23.1197451638 23.1197451638
1268 1 7.1137681121 23.1197451638 26.6766300202
1269 1 7.1137681121 23.1197451638 30.2335148765
1270 1 7.1137681121 23.1197451638 33.7903975987
1271 1 7.1137681121 26.6766300202 1.7784420369
1272 1 7.1137681121 26.6766300202 5.3353262174
1273 1 7.1137681121 26.6766300202 8.8922100067
1274 1 7.1137681121 26.6766300202 12.449093796
1275 1 7.1137681121 26.6766300202 16.0059775853
1276 1 7.1137681121 26.6766300202 19.5628624416
1277 1 7.1137681121 26.6766300202 23.1197451638
1278 1 7.1137681121 26.6766300202 26.6766300202
1279 1 7.1137681121 26.6766300202 30.2335148765
1280 1 7.1137681121 26.6766300202 33.7903975987
1281 1 7.1137681121 30.2335148765 1.7784420369
1282 1 7.1137681121 30.2335148765 5.3353262174
1283 1 7.1137681121 30.2335148765 8.8922100067
1284 1 7.1137681121 30.2335148765 12.449093796
1285 1 7.1137681121 30.2335148765 16.0059775853
1286 1 7.1137681121 30.2335148765 19.5628624416
1287 1 7.1137681121 30.2335148765 23.1197451638
1288 1 7.1137681121 30.2335148765 26.6766300202
1289 1 7.1137681121 30.2335148765 30.2335148765
1290 1 7.1137681121 30.2335148765 33.7903975987
1291 1 7.1137681121 33.7903975987 1.7784420369
1292 1 7.1137681121 33.7903975987 5.3353262174
1293 1 7.1137681121 33.7903975987 8.8922100067
1294 1 7.1137681121 33.7903975987 12.449093796
1295 1 7.1137681121 33.7903975987 16.0059775853
1296 1 7.1137681121 33.7903975987 19.5628624416
1297 1 7.1137681121 33.7903975987 23.1197451638
1298 1 7.1137681121 33.7903975987 26.6766300202
1299 1 7.1137681121 33.7903975987 30.2335148765
1300 1 7.1137681121 33.7903975987 33.7903975987
1301 1 10.6706524349 1.7784420369 1.7784420369
1302 1 10.6706524349 1.7784420369 5.3353262174
1303 1 10.6706524349 1.7784420369 8.8922100067
1304 1 10.6706524349 1.7784420369 12.449093796
1305 1 10.6706524349 1.7784420369 16.0059775853
1306 1 10.6706524349 1.7784420369 19.5628624416
1307 1 10.6706524349 1.7784420369 23.1197451638
1308 1 10.6706524349 1.7784420369 26.6766300202
1309 1 10.6706524349 1.7784420369 30.2335148765
1310 1 10.6706524349 1.7784420369 33.7903975987
1311 1 10.6706524349 5.3353262174 1.7784420369
1312 1 10.6706524349 5.3353262174 5.3353262174
1313 1 10.6706524349 5.3353262174 8.8922100067
1314 1 10.6706524349 5.3353262174 12.449093796
1315 1 10.6706524349 5.3353262174 16.0059775853
1316 1 10.6706524349 5.3353262174 19.5628624416
1317 1 10.6706524349 5.3353262174 23.1197451638
1318 1 10.6706524349 5.3353262174 26.6766300202
1319 1 10.6706524349 5.3353262174 30.2335148765
1320 1 10.6706524349 5.3353262174 33.7903975987
1321 1 10.6706524349 8.8922100067 1.7784420369
1322 1 10.6706524349 8.8922100067 5.3353262174
1323 1 10.6706524349 8.8922100067 8.8922100067
1324 1 10.6706524349 8.8922100067 12.449093796
1325 1 10.6706524349 8.8922100067 16.0059775853
1326 1 10.6706524349 8.8922100067 19.5628624416
1327 1 10.6706524349 8.8922100067 23.1197451638
1328 1 10.6706524349 8.8922100067 26.6766300202
1329 1 10.6706524349 8.8922100067 30.2335148765
1330 1 10.6706524349 8.8922100067 33.7903975987
1331 1 10.6706524349 12.449093796 1.7784420369
1332 1 10.6706524349 12.449093796 5.3353262174
1333 1 10.6706524349 12.449093796 8.8922100067
1334 1 10.6706524349 12.449093796 12.449093796
1335 1 10.6706524349 12.449093796 16.0059775853
1336 1 10.6706524349 12.449093796 19.5628624416
1337 1 10.6706524349 12.449093796 23.1197451638
1338 1 10.6706524349 12.449093796 26.6766300202
1339 1 10.6706524349 12.449093796 30.2335148765
1340 1 10.6706524349 12.449093796 33.7903975987
1341 1 10.6706524349 16.0059775853 1.7784420369
1342 1 10.6706524349 16.0059775853 5.3353262174
1343 1 10.6706524349 16.0059775853 8.8922100067
1344 1 10.6706524349 16.0059775853 12.449093796
1345 1 10.6706524349 16.0059775853 16.0059775853
1346 1 10.6706524349 16.0059775853 19.5628624416
1347 1 10.6706524349 16.0059775853 23.1197451638
1348 1 10.6706524349 16.0059775853 26.6766300202
1349 1 10.6706524349 16.0059775853 30.2335148765
1350 1 10.6706524349 16.0059775853 33.7903975987
1351 1 10.6706524349 19.5628624416 1.7784420369
1352 1 10.6706524349 19.5628624416 5.3353262174
1353 1 10.6706524349 19.5628624416 8.8922100067
1354 1 10.6706524349 19.5628624416 12.449093796
1355 1 10.6706524349 19.5628624416 16.0059775853
1356 1 10.6706524349 19.5628624416 19.5628624416
1357 1 10.6706524349 19.5628624416 23.1197451638
1358 1 10.6706524349 19.5628624416 26.6766300202
1359 1 10.6706524349 19.5628624416 30.2335148765
1360 1 10.6706524349 19.5628624416 33.7903975987
1361 1 10.6706524349 23.1197451638 1.7784420369
1362 1 10.6706524349 23.1197451638 5.3353262174
1363 1 10.6706524349 23.1197451638 8.8922100067
1364 1 10.6706524349 23.1197451638 12.449093796
1365 1 10.6706524349 23.1197451638 16.0059775853
1366 1 10.6706524349 23.1197451638 19.5628624416
1367 1 10.6706524349 23.1197451638 23.1197451638
1368 1 10.6706524349 23.1197451638 26.6766300202
1369 1 10.6706524349 23.1197451638 30.2335148765
1370 1 10.6706524349 23.1197451638 33.7903975987
1371 1 10.6706524349 26.6766300202 1.7784420369
1372 1 10.6706524349 26.6766300202 5.3353262174
1373 1 10.6706524349 26.6766300202 8.8922100067
1374 1 10.6706524349 26.6766300202 12.449093796
1375 1 10.6706524349 26.6766300202 16.0059775853
1376 1 10.6706524349 26.6766300202 19.5628624416
1377 1 10.6706524349 26.6766300202 23.1197451638
1378 1 10.6706524349 26.6766300202 26.6766300202
1379 1 10.6706524349 26.6766300202 30.2335148765
1380 1 10.6706524349 26.6766300202 33.7903975987
1381 1 10.6706524349 30.2335148765 1.7784420369
1382 1 10.6706524349 30.2335148765 5.3353262174
1383 1 10.6706524349 30.2335148765 8.8922100067
1384 1 10.6706524349 30.2335148765 12.449093796
1385 1 10.6706524349 30.2335148765 16.0059775853
1386 1 10.6706524349 30.2335148765 19.5628624416
1387 1 10.6706524349 30.2335148765 23.1197451638
1388 1 10.6706524349 30.2335148765 26.6766300202
1389 1 10.6706524349 30.2335148765 30.2335148765
1390 1 10.6706524349 30.2335148765 33.7903975987
1391 1 10.6706524349 33.7903975987 1.7784420369
1392 1 10.6706524349 33.7903975987 5.3353262174
1393 1 10.6706524349 33.7903975987 8.8922100067
1394 1 10.6706524349 33.7903975987 12.449093796
1395 1 10.6706524349 33.7903975987 16.0059775853
1396 1 10.6706524349 33.7903975987 19.5628624416
1397 1 10.6706524349 33.7903975987 23.1197451638
1398 1 10.6706524349 33.7903975987 26.6766300202
1399 1 10.6706524349 33.7903975987 30.2335148765
1400 1 10.6706524349 33.7903975987 33.7903975987
1401 1 14.2275362242 1.7784420369 1.7784420369
1402 1 14.2275362242 1.7784420369 5.3353262174
1403 1 14.2275362242 1.7784420369 8.8922100067
1404 1 14.2275362242 1.7784420369 12.449093796
1405 1 14.2275362242 1.7784420369 16.0059775853
1406 1 14.2275362242 1.7784420369 19.5628624416
1407 1 14.2275362242 1.7784420369 23.1197451638
1408 1 14.2275362242 1.7784420369 26.6766300202
1409 1 14.2275362242 1.7784420369 30.2335148765
1410 1 14.2275362242 1.7784420369 33.7903975987
1411 1 14.2275362242 5.3353262174 1.7784420369
1412 1 14.2275362242 5.3353262174 5.3353262174
1413 1 14.2275362242 5.3353262174 8.8922100067
1414 1 14.2275362242 5.3353262174 12.449093796
1415 1 14.2275362242 5.3353262174 16.0059775853
1416 1 14.2275362242 5.3353262174 19.5628624416
1417 1 14.2275362242 5.3353262174 23.1197451638
1418 1 14.2275362242 5.3353262174 26.6766300202
1419 1 14.2275362242 5.3353262174 30.2335148765
1420 1 14.2275362242 5.3353262174 33.7903975987
1421 1 14.2275362242 8.8922100067 1.7784420369
1422 1 14.2275362242 8.8922100067 5.3353262174
1423 1 14.2275362242 8.8922100067 8.8922100067
1424 1 14.2275362242 8.8922100067 12.449093796
1425 1 14.2275362242 8.8922100067 16.0059775853
1426 1 14.2275362242 8.8922100067 19.5628624416
1427 1 14.2275362242 8.8922100067 23.1197451638
1428 1 14.2275362242 8.8922100067 26.6766300202
1429 1 14.2275362242 8.8922100067 30.2335148765
1430 1 14.2275362242 8.8922100067 33.7903975987
1431 1 14.2275362242 12.449093796 1.7784420369
1432 1 14.2275362242 12.449093796 5.3353262174
1433 1 14.2275362242 12.449093796 8.8922100067
1434 1 14.2275362242 12.449093796 12.449093796
1435 1 14.2275362242 12.449093796 16.0059775853
1436 1 14.2275362242 12.449093796 19.5628624416
1437 1 14.2275362242 12.449093796 23.1197451638
1438 1 14.2275362242 12.449093796 26.6766300202
1439 1 14.2275362242 12.449093796 30.2335148765
1440 1 14.2275362242 12.449093796 33.7903975987
1441 1 14.2275362242 16.0059775853 1.7784420369
1442 1 14.2275362242 16.0059775853 5.3353262174
1443 1 14.2275362242 16.0059775853 8.8922100067
1444 1 14.2275362242 16.0059775853 12.449093796
1445 1 14.2275362242 16.0059775853 16.0059775853
1446 1 14.2275362242 16.0059775853 19.5628624416
1447 1 14.2275362242 16.0059775853 23.1197451638
1448 1 14.2275362242 16.0059775853 26.6766300202
1449 1 14.2275362242 16.0059775853 30.2335148765
1450 1 14.2275362242 16.0059775853 33.7903975987
1451 1 14.2275362242 19.5628624416 1.7784420369
1452 1 14.2275362242 19.5628624416 5.3353262174
1453 1 14.2275362242 19.5628624416 8.8922100067
1454 1 14.2275362242 19.5628624416 12.449093796
1455 1 14.2275362242 19.5628624416 16.0059775853
1456 1 14.2275362242 19.5628624416 19.5628624416
1457 1 14.2275362242 19.5628624416 23.1197451638
1458 1 14.2275362242 19.5628624416 26.6766300202
1459 1 14.2275362242 19.5628624416 30.2335148765
1460 1 14.2275362242 19.5628624416 33.7903975987
1461 1 14.2275362242 23.1197451638 1.7784420369
1462 1 14.2275362242 23.1197451638 5.3353262174
1463 1 14.2275362242 23.1197451638 8.8922100067
1464 1 14.2275362242 23.1197451638 12.449093796
1465 1 14.2275362242 23.1197451638 16.0059775853
1466 1 14.2275362242 23.1197451638 19.5628624416
1467 1 14.2275362242 23.1197451638 23.1197451638
1468 1 14.2275362242 23.1197451638 26.6766300202
1469 1 14.2275362242 23.1197451638 30.2335148765
1470 1 14.2275362242 23.1197451638 33.7903975987
1471 1 14.2275362242 26.6766300202 1.7784420369
1472 1 14.2275362242 26.6766300202 5.3353262174
1473 1 14.2275362242 26.6766300202 8.8922100067
1474 1 14.2275362242 26.6766300202 12.449093796
1475 1 14.2275362242 26.6766300202 16.0059775853
1476 1 14.2275362242 26.6766300202 19.5628624416
1477 1 14.2275362242 26.6766300202 23.1197451638
1478 1 14.2275362242 26.6766300202 26.6766300202
1479 1 14.2275362242 26.6766300202 30.2335148765
1480 1 14.2275362242 26.6766300202 33.7903975987
1481 1 14.2275362242 30.2335148765 1.7784420369
1482 1 14.2275362242 30.2335148765 5.3353262174
1483 1 14.2275362242 30.2335148765 8.8922100067
1484 1 14.2275362242 30.2335148765 12.449093796
1485 1 14.2275362242 30.2335148765 16.0059775853
1486 1 14.2275362242 30.2335148765 19.5628624416
1487 1 14.2275362242 30.2335148765 23.1197451638
1488 1 14.2275362242 30.2335148765 26.6766300202
1489 1 14.2275362242 30.2335148765 30.2335148765
1490 1 14.2275362242 30.2335148765 33.7903975987
1491 1 14.2275362242 33.7903975987 1.7784420369
1492 1 14.2275362242 33.7903975987 5.3353262174
1493 1 14.2275362242 33.7903975987 8.8922100067
1494 1 14.2275362242 33.7903975987 12.449093796
1495 1 14.2275362242 33.7903975987 16.0059775853
1496 1 14.2275362242 33.7903975987 19.5628624416
1497 1 14.2275362242 33.7903975987 23.1197451638
1498 1 14.2275362242 33.7903975987 26.6766300202
1499 1 14.2275362242 33.7903975987 30.2335148765
1500 1 14.2275362242 33.7903975987 33.7903975987
1501 1 17.7844200134 1.7784420369 1.7784420369
1502 1 17.7844200134 1.7784420369 5.3353262174
1503 1 17.7844200134 1.7784420369 8.8922100067
1504 1 17.7844200134 1.7784420369 12.449093796
1505 1 17.7844200134 1.7784420369 16.0059775853
1506 1 17.7844200134 1.7784420369 19.5628624416
1507 1 17.7844200134 1.7784420369 23.1197451638
1508 1 17.7844200134 1.7784420369 26.6766300202
1509 1 17.7844200134 1.7784420369 30.2335148765
1510 1 17.7844200134 1.7784420369 33.7903975987
1511 1 17.7844200134 5.3353262174 1.7784420369
1512 1 17.7844200134 5.3353262174 5.3353262174
1513 1 17.7844200134 5.3353262174 8.8922100067
1514 1 17.7844200134 5.3353262174 12.449093796
1515 1 17.7844200134 5.3353262174 16.0059775853
1516 1 17.7844200134 5.3353262174 19.5628624416
1517 1 17.7844200134 5.3353262174 23.1197451638
1518 1 17.7844200134 5.3353262174 26.6766300202
1519 1 17.7844200134 5.3353262174 30.2335148765
1520 1 17.7844200134 5.3353262174 33.7903975987
1521 1 17.7844200134 8.8922100067 1.7784420369
1522 1 17.7844200134 8.8922100067 5.3353262174
1523 1 17.7844200134 8.8922100067 8.8922100067
1524 1 17.7844200134 8.8922100067 12.449093796
1525 1 17.7844200134 8.8922100067 16.0059775853
1526 1 17.7844200134 8.8922100067 19.5628624416
1527 1 17.7844200134 8.8922100067 23.1197451638
1528 1 17.7844200134 8.8922100067 26.6766300202
1529 1 17.7844200134 8.8922100067 30.2335148765
1530 1 17.7844200134 8.8922100067 33.7903975987
1531 1 17.7844200134 12.449093796 1.7784420369
1532 1 17.7844200134 12.449093796 5.3353262174
1533 1 17.7844200134 12.449093796 8.8922100067
1534 1 17.7844200134 12.449093796 12.449093796
1535 1 17.7844200134 12.449093796 16.0059775853
1536 1 17.7844200134 12.449093796 19.5628624416
1537 1 17.7844200134 12.449093796 23.1197451638
1538 1 17.7844200134 12.449093796 26.6766300202
1539 1 17.7844200134 12.449093796 30.2335148765
1540 1 17.7844200134 12.449093796 33.7903975987
1541 1 17.7844200134 16.0059775853 1.7784420369
1542 1 17.7844200134 16.0059775853 5.3353262174
1543 1 17.7844200134 16.0059775853 8.8922100067
1544 1 17.7844200134 16.0059775853 12.449093796
1545 1 17.7844200134 16.0059775853 16.0059775853
1546 1 17.7844200134 16.0059775853 19.5628624416
1547 1 17.7844200134 16.0059775853 23.1197451638
1548 1 17.7844200134 16.0059775853 26.6766300202
1549 1 17.7844200134 16.0059775853 30.2335148765
1550 1 17.7844200134 16.0059775853 33.7903975987
1551 1 17.7844200134 19.5628624416 1.7784420369
1552 1 17.7844200134 19.5628624416 5.3353262174
1553 1 17.7844200134 19.5628624416 8.8922100067
1554 1 17.7844200134 19.5628624416 12.449093796
1555 1 17.7844200134 19.5628624416 16.0059775853
1556 1 17.7844200134 19.5628624416 19.5628624416
1557 1 17.7844200134 19.5628624416 23.1197451638
1558 1 17.7844200134 19.5628624416 26.6766300202
1559 1 17.7844200134 19.5628624416 30.2335148765
1560 1 17.7844200134 19.5628624416 33.7903975987
1561 1 17.7844200134 23.1197451638 1.7784420369
1562 1 17.7844200134 23.1197451638 5.3353262174
1563 1 17.7844200134 23.1197451638 8.8922100067
1564 1 17.7844200134 23.1197451638 12.449093796
1565 1 17.7844200134 23.1197451638 16.0059775853
1566 1 17.7844200134 23.1197451638 19.5628624416
1567 1 17.7844200134 23.1197451638 23.1197451638
1568 1 17.7844200134 23.1197451638 26.6766300202
1569 1 17.7844200134 23.1197451638 30.2335148765
1570 1 17.7844200134 23.1197451638 33.7903975987
1571 1 17.7844200134 26.6766300202 1.7784420369
1572 1 17.7844200134 26.6766300202 5.3353262174
1573 1 17.7844200134 26.6766300202 8.8922100067
1574 1 17.7844200134 26.6766300202 12.449093796
1575 1 17.7844200134 26.6766300202 16.0059775853
1576 1 17.7844200134 26.6766300202 19.5628624416
1577 1 17.7844200134 26.6766300202 23.1197451638
1578 1 17.7844200134 26.6766300202 26.6766300202
1579 1 17.7844200134 26.6766300202 30.2335148765
1580 1 17.7844200134 26.6766300202 33.7903975987
1581 1 17.7844200134 30.2335148765 1.7784420369
1582 1 17.7844200134 30.2335148765 5.3353262174
1583 1 17.7844200134 30.2335148765 8.8922100067
1584 1 17.7844200134 30.2335148765 12.449093796
1585 1 17.7844200134 30.2335148765 16.0059775853
1586 1 17.7844200134 30.2335148765 19.5628624416
1587 1 17.7844200134 30.2335148765 23.1197451638
1588 1 17.7844200134 30.2335148765 26.6766300202
1589 1 17.7844200134 30.2335148765 30.2335148765
1590 1 17.7844200134 30.2335148765 33.7903975987
1591 1 17.7844200134 33.7903975987 1.7784420369
1592 1 17.7844200134 33.7903975987 5.3353262174
1593 1 17.7844200134 33.7903975987 8.8922100067
1594 1 17.7844200134 33.7903975987 12.449093796
1595 1 17.7844200134 33.7903975987 16.0059775853
1596 1 17.7844200134 33.7903975987 19.5628624416
1597 1 17.7844200134 33.7903975987 23.1197451638
1598 1 17.7844200134 33.7903975987 26.6766300202
1599 1 17.7844200134 33.7903975987 30.2335148765
1600 1 17.7844200134 33.7903975987 33.7903975987
1601 1 21.3413048698 1.7784420369 1.7784420369
1602 1 21.3413048698 1.7784420369 5.3353262174
1603 1 21.3413048698 1.7784420369 8.8922100067
1604 1 21.3413048698 1.7784420369 12.449093796
1605 1 21.3413048698 1.7784420369 16.0059775853
1606 1 21.3413048698 1.7784420369 19.5628624416
1607 1 21.3413048698 1.7784420369 23.1197451638
1608 1 21.3413048698 1.7784420369 26.6766300202
1609 1 21.3413048698 1.7784420369 30.2335148765
1610 1 21.3413048698 1.7784420369 33.7903975987
1611 1 21.3413048698 5.3353262174 1.7784420369
1612 1 21.3413048698 5.3353262174 5.3353262174
1613 1 21.3413048698 5.3353262174 8.8922100067
1614 1 21.3413048698 5.3353262174 12.449093796
1615 1 21.3413048698 5.3353262174 16.0059775853
1616 1 21.3413048698 5.3353262174 19.5628624416
1617 1 21.3413048698 5.3353262174 23.1197451638
1618 1 21.3413048698 5.3353262174 26.6766300202
1619 1 21.3413048698 5.3353262174 30.2335148765
1620 1 21.3413048698 5.3353262174 33.7903975987
1621 1 21.3413048698 8.8922100067 1.7784420369
1622 1 21.3413048698 8.8922100067 5.3353262174
1623 1 21.3413048698 8.8922100067 8.8922100067
1624 1 21.3413048698 8.8922100067 12.449093796
1625 1 21.3413048698 8.8922100067 16.0059775853
1626 1 21.3413048698 8.8922100067 19.5628624416
1627 1 21.3413048698 8.8922100067 23.1197451638
1628 1 21.3413048698 8.8922100067 26.6766300202
1629 1 21.3413048698 8.8922100067 30.2335148765
1630 1 21.3413048698 8.8922100067 33.7903975987
1631 1 21.3413048698 12.449093796 1.7784420369
1632 1 21.3413048698 12.449093796 5.3353262174
1633 1 21.3413048698 12.449093796 8.8922100067
1634 1 21.3413048698 12.449093796 12.449093796
1635 1 21.3413048698 12.449093796 16.0059775853
1636 1 21.3413048698 12.449093796 19.5628624416
1637 1 21.3413048698 12.449093796 23.1197451638
1638 1 21.3413048698 12.449093796 26.6766300202
1639 1 21.3413048698 12.449093796 30.2335148765
1640 1 21.3413048698 12.449093796 33.7903975987
1641 1 21.3413048698 16.0059775853 1.7784420369
1642 1 21.3413048698 16.0059775853 5.3353262174
1643 1 21.3413048698 16.0059775853 8.8922100067
1644 1 21.3413048698 16.0059775853 12.449093796
1645 1 21.3413048698 16.0059775853 16.0059775853
1646 1 21.3413048698 16.0059775853 19.5628624416
1647 1 21.3413048698 16.0059775853 23.1197451638
1648 1 21.3413048698 16.0059775853 26.6766300202
1649 1 21.3413048698 16.0059775853 30.2335148765
1650 1 21.3413048698 16.0059775853 33.7903975987
1651 1 21.3413048698 19.5628624416 1.7784420369
1652 1 21.3413048698 19.5628624416 5.3353262174
1653 1 21.3413048698 19.5628624416 8.8922100067
1654 1 21.3413048698 19.5628624416 12.449093796
1655 1 21.3413048698 19.5628624416 16.0059775853
1656 1 21.3413048698 19.5628624416 19.5628624416
1657 1 21.3413048698 19.5628624416 23.1197451638
1658 1 21.3413048698 19.5628624416 26.6766300202
1659 1 21.3413048698 19.5628624416 30.2335148765
1660 1 21.3413048698 19.5628624416 33.7903975987
1661 1 21.3413048698 23.1197451638 1.7784420369
1662 1 21.3413048698 23.1197451638 5.3353262174
1663 1 21.3413048698 23.1197451638 8.8922100067
1664 1 21.3413048698 23.1197451638 12.449093796
1665 1 21.3413048698 23.1197451638 16.0059775853
1666 1 21.3413048698 23.1197451638 19.5628624416
1667 1 21.3413048698 23.1197451638 23.1197451638
1668 1 21.3413048698 23.1197451638 26.6766300202
1669 1 21.3413048698 23.1197451638 30.2335148765
1670 1 21.3413048698 23.1197451638 33.7903975987
1671 1 21.3413048698 26.6766300202 1.7784420369
1672 1 21.3413048698 26.6766300202 5.3353262174
1673 1 21.3413048698 26.6766300202 8.8922100067
1674 1 21.3413048698 26.6766300202 12.449093796
1675 1 21.3413048698 26.6766300202 16.0059775853
1676 1 21.3413048698 26.6766300202 19.5628624416
1677 1 21.3413048698 26.6766300202 23.1197451638
1678 1 21.3413048698 26.6766300202 26.6766300202
1679 1 21.3413048698 26.6766300202 30.2335148765
1680 1 21.3413048698 26.6766300202 33.7903975987
1681 1 21.3413048698 30.2335148765 1.7784420369
1682 1 21.3413048698 30.2335148765 5.3353262174
1683 1 21.3413048698 30.2335148765 8.8922100067
1684 1 21.3413048698 30.2335148765 12.449093796
1685 1 21.3413048698 30.2335148765 16.0059775853
1686 1 21.3413048698 30.2335148765 19.5628624416
1687 1 21.3413048698 30.2335148765 23.1197451638
1688 1 21.3413048698 30.2335148765 26.6766300202
1689 1 21.3413048698 30.2335148765 30.2335148765
1690 1 21.3413048698 30.2335148765 33.7903975987
1691 1 21.3413048698 33.7903975987 1.7784420369
1692 1 21.3413048698 33.7903975987 5.3353262174
1693 1 21.3413048698 33.7903975987 8.8922100067
1694 1 21.3413048698 33.7903975987 12.449093796
1695 1 21.3413048698 33.7903975987 16.0059775853
1696 1 21.3413048698 33.7903975987 19.5628624416
1697 1 21.3413048698 33.7903975987 23.1197451638
1698 1 21.3413048698 33.7903975987 26.6766300202
1699 1 21.3413048698 33.7903975987 30.2335148765
1700 1 21.3413048698 33.7903975987 33.7903975987
1701 1 24.898187592 1.7784420369 1.7784420369
1702 1 24.898187592 1.7784420369 5.3353262174
1703 1 24.898187592 1.7784420369 8.8922100067
1704 1 24.898187592 1.7784420369 12.449093796
1705 1 24.898187592 1.7784420369 16.0059775853
1706 1 24.898187592 1.7784420369 19.5628624416
1707 1 24.898187592 1.7784420369 23.1197451638
1708 1 24.898187592 1.7784420369 26.6766300202
1709 1 24.898187592 1.7784420369 30.2335148765
1710 1 24.898187592 1.7784420369 33.7903975987
1711 1 24.898187592 5.3353262174 1.7784420369
1712 1 24.898187592 5.3353262174 5.3353262174
1713 1 24.898187592 5.3353262174 8.8922100067
1714 1 24.898187592 5.3353262174 12.449093796
1715 1 24.898187592 5.3353262174 16.0059775853
1716 1 24.898187592 5.3353262174 19.5628624416
1717 1 24.898187592 5.3353262174 23.1197451638
1718 1 24.898187592 5.3353262174 26.6766300202
1719 1 24.898187592 5.3353262174 30.2335148765
1720 1 24.898187592 5.3353262174 33.7903975987
1721 1 24.898187592 8.8922100067 1.7784420369
1722 1 24.898187592 8.8922100067 5.3353262174
1723 1 24.898187592 8.8922100067 8.8922100067
1724 1 24.898187592 8.8922100067 12.449093796
1725 1 24.898187592 8.8922100067 16.0059775853
1726 1 24.898187592 8.8922100067 19.5628624416
1727 1 24.898187592 8.8922100067 23.1197451638
1728 1 24.898187592 8.8922100067 26.6766300202
1729 1 24.898187592 8.8922100067 30.2335148765
1730 1 24.898187592 8.8922100067 33.7903975987
1731 1 24.898187592 12.449093796 1.7784420369
1732 1 24.898187592 12.449093796 5.3353262174
1733 1 24.898187592 12.449093796 8.8922100067
1734 1 24.898187592 12.449093796 12.449093796
1735 1 24.898187592 12.449093796 16.0059775853
1736 1 24.898187592 12.449093796 19.5628624416
1737 1 24.898187592 12.449093796 23.1197451638
1738 1 24.898187592 12.449093796 26.6766300202
1739 1 24.898187592 12.449093796 30.2335148765
1740 1 24.898187592 12.449093796 33.7903975987
1741 1 24.898187592 16.0059775853 1.7784420369
1742 1 24.898187592 16.0059775853 5.3353262174
1743 1 24.898187592 16.0059775853 8.8922100067
1744 1 24.898187592 16.0059775853 12.449093796
1745 1 24.898187592 16.0059775853 16.0059775853
1746 1 24.898187592 16.0059775853 19.5628624416
1747 1 24.898187592 16.0059775853 23.1197451638
1748 1 24.898187592 16.0059775853 26.6766300202
1749 1 24.898187592 16.0059775853 30.2335148765
1750 1 24.898187592 16.0059775853 33.7903975987
1751 1 24.898187592 19.5628624416 1.7784420369
1752 1 24.898187592 19.5628624416 5.3353262174
1753 1 24.898187592 19.5628624416 8.8922100067
1754 1 24.898187592 19.5628624416 12.449093796
1755 1 24.898187592 19.5628624416 16.0059775853
1756 1 24.898187592 19.5628624416 19.5628624416
1757 1 24.898187592 19.5628624416 23.1197451638
1758 1 24.898187592 19.5628624416 26.6766300202
1759 1 24.898187592 19.5628624416 30.2335148765
1760 1 24.898187592 19.5628624416 33.7903975987
1761 1 24.898187592 23.1197451638 1.7784420369
1762 1 24.898187592 23.1197451638 5.3353262174
1763 1 24.898187592 23.1197451638 8.8922100067
1764 1 24.898187592 23.1197451638 12.449093796
1765 1 24.898187592 23.1197451638 16.0059775853
1766 1 24.898187592 23.1197451638 19.5628624416
1767 1 24.898187592 23.1197451638 23.1197451638
1768 1 24.898187592 23.1197451638 26.6766300202
1769 1 24.898187592 23.1197451638 30.2335148765
1770 1 24.898187592 23.1197451638 33.7903975987
1771 1 24.898187592 26.6766300202 1.7784420369
1772 1 24.898187592 26.6766300202 5.3353262174
1773 1 24.898187592 26.6766300202 8.8922100067
1774 1 24.898187592 26.6766300202 12.449093796
1775 1 24.898187592 26.6766300202 16.0059775853
1776 1 24.898187592 26.6766300202 19.5628624416
1777 1 24.898187592 26.6766300202 23.1197451638
1778 1 24.898187592 26.6766300202 26.6766300202
1779 1 24.898187592 26.6766300202 30.2335148765
1780 1 24.898187592 26.6766300202 33.7903975987
1781 1 24.898187592 30.2335148765 1.7784420369
1782 1 24.898187592 30.2335148765 5.3353262174
1783 1 24.898187592 30.2335148765 8.8922100067
1784 1 24.898187592 30.2335148765 12.449093796
1785 1 24.898187592 30.2335148765 16.0059775853
1786 1 24.898187592 30.2335148765 19.5628624416
1787 1 24.898187592 30.2335148765 23.1197451638
1788 1 24.898187592 30.2335148765 26.6766300202
1789 1 24.898187592 30.2335148765 30.2335148765
1790 1 24.898187592 30.2335148765 33.7903975987
1791 1 24.898187592 33.7903975987 1.7784420369
1792 1 24.898187592 33.7903975987 5.3353262174
1793 1 24.898187592 33.7903975987 8.8922100067
1794 1 24.898187592 33.7903975987 12.449093796
1795 1 24.898187592 33.7903975987 16.0059775853
1796 1 24.898187592 33.7903975987 19.5628624416
1797 1 24.898187592 33.7903975987 23.1197451638
1798 1 24.898187592 33.7903975987 26.6766300202
1799 1 24.898187592 33.7903975987 30.2335148765
1800 1 24.898187592 33.7903975987 33.7903975987
1801 1 28.4550724483 1.7784420369 1.7784420369
1802 1 28.4550724483 1.7784420369 5.3353262174
1803 1 28.4550724483 1.7784420369 8.8922100067
1804 1 28.4550724483 1.7784420369 12.449093796
1805 1 28.4550724483 1.7784420369 16.0059775853
1806 1 28.4550724483 1.7784420369 19.5628624416
1807 1 28.4550724483 1.7784420369 23.1197451638
1808 1 28.4550724483 1.7784420369 26.6766300202
1809 1 28.4550724483 1.7784420369 30.2335148765
1810 1 28.4550724483 1.7784420369 33.7903975987
1811 1 28.4550724483 5.3353262174 1.7784420369
1812 1 28.4550724483 5.3353262174 5.3353262174
1813 1 28.4550724483 5.3353262174 8.8922100067
1814 1 28.4550724483 5.3353262174 12.449093796
1815 1 28.4550724483 5.3353262174 16.0059775853
1816 1 28.4550724483 5.3353262174 19.5628624416
1817 1 28.4550724483 5.3353262174 23.1197451638
1818 1 28.4550724483 5.3353262174 26.6766300202
1819 1 28.4550724483 5.3353262174 30.2335148765
1820 1 28.4550724483 5.3353262174 33.7903975987
1821 1 28.4550724483 8.8922100067 1.7784420369
1822 1 28.4550724483 8.8922100067 5.3353262174
1823 1 28.4550724483 8.8922100067 8.8922100067
1824 1 28.4550724483 8.8922100067 12.449093796
1825 1 28.4550724483 8.8922100067 16.0059775853
1826 1 28.4550724483 8.8922100067 19.5628624416
1827 1 28.4550724483 8.8922100067 23.1197451638
1828 1 28.4550724483 8.8922100067 26.6766300202
1829 1 28.4550724483 8.8922100067 30.2335148765
1830 1 28.4550724483 8.8922100067 33.7903975987
1831 1 28.4550724483 12.449093796 1.7784420369
1832 1 28.4550724483 12.449093796 5.3353262174
1833 1 28.4550724483 12.449093796 8.8922100067
1834 1 28.4550724483 12.449093796 12.449093796
1835 1 28.4550724483 12.449093796 16.0059775853
1836 1 28.4550724483 12.449093796 19.5628624416
1837 1 28.4550724483 12.449093796 23.1197451638
1838 1 28.4550724483 12.449093796 26.6766300202
1839 1 28.4550724483 12.449093796 30.2335148765
1840 1 28.4550724483 12.449093796 33.7903975987
1841 1 28.4550724483 16.0059775853 1.7784420369
1842 1 28.4550724483 16.0059775853 5.3353262174
1843 1 28.4550724483 16.0059775853 8.8922100067
1844 1 28.4550724483 16.0059775853 12.449093796
1845 1 28.4550724483 16.0059775853 16.0059775853
1846 1 28.4550724483 16.0059775853 19.5628624416
1847 1 28.4550724483 16.0059775853 23.1197451638
1848 1 28.4550724483 16.0059775853 26.6766300202
1849 1 28.4550724483 16.0059775853 30.2335148765
1850 1 28.4550724483 16.0059775853 33.7903975987
1851 1 28.4550724483 19.5628624416 1.7784420369
1852 1 28.4550724483 19.5628624416 5.3353262174
1853 1 28.4550724483 19.5628624416 8.8922100067
1854 1 28.4550724483 19.5628624416 12.449093796
1855 1 28.4550724483 19.5628624416 16.0059775853
1856 1 28.4550724483 19.5628624416 19.5628624416
1857 1 28.4550724483 19.5628624416 23.1197451638
1858 1 28.4550724483 19.5628624416 26.6766300202
1859 1 28.4550724483 19.5628624416 30.2335148765
1860 1 28.4550724483 19.5628624416 33.7903975987
1861 1 28.4550724483 23.1197451638 1.7784420369
1862 1 28.4550724483 23.1197451638 5.3353262174
1863 1 28.4550724483 23.1197451638 8.8922100067
1864 1 28.4550724483 23.1197451638 12.449093796
1865 1 28.4550724483 23.1197451638 16.0059775853
1866 1 28.4550724483 23.1197451638 19.5628624416
1867 1 28.4550724483 23.1197451638 23.1197451638
1868 1 28.4550724483 23.1197451638 26.6766300202
1869 1 28.4550724483 23.1197451638 30.2335148765
1870 1 28.4550724483 23.1197451638 33.7903975987
1871 1 28.4550724483 26.6766300202 1.7784420369
1872 1 28.4550724483 26.6766300202 5.3353262174
1873 1 28.4550724483 26.6766300202 8.8922100067
1874 1 28.4550724483 26.6766300202 12.449093796
1875 1 28.4550724483 26.6766300202 16.0059775853
1876 1 28.4550724483 26.6766300202 19.5628624416
1877 1 28.4550724483 26.6766300202 23.1197451638
1878 1 28.4550724483 26.6766300202 26.6766300202
1879 1 28.4550724483 26.6766300202 30.2335148765
1880 1 28.4550724483 26.6766300202 33.7903975987
1881 1 28.4550724483 30.2335148765 1.7784420369
1882 1 28.4550724483 30.2335148765 5.3353262174
1883 1 28.4550724483 30.2335148765 8.8922100067
1884 1 28.4550724483 30.2335148765 12.449093796
1885 1 28.4550724483 30.2335148765 16.0059775853
1886 1 28.4550724483 30.2335148765 19.5628624416
1887 1 28.4550724483 30.2335148765 23.1197451638
1888 1 28.4550724483 30.2335148765 26.6766300202
1889 1 28.4550724483 30.2335148765 30.2335148765
1890 1 28.4550724483 30.2335148765 33.7903975987
1891 1 28.4550724483 33.7903975987 1.7784420369
1892 1 28.4550724483 33.7903975987 5.3353262174
1893 1 28.4550724483 33.7903975987 8.8922100067
1894 1 28.4550724483 33.7903975987 12.449093796
1895 1 28.4550724483 33.7903975987 16.0059775853
1896 1 28.4550724483 33.7903975987 19.5628624416
1897 1 28.4550724483 33.7903975987 23.1197451638
1898 1 28.4550724483 33.7903975987 26.6766300202
1899 1 28.4550724483 33.7903975987 30.2335148765
1900 1 28.4550724483 33.7903975987 33.7903975987
1901 1 32.0119551706 1.7784420369 1.7784420369
1902 1 32.0119551706 1.7784420369 5.3353262174
1903 1 32.0119551706 1.7784420369 8.8922100067
1904 1 32.0119551706 1.7784420369 12.449093796
1905 1 32.0119551706 1.7784420369 16.0059775853
1906 1 32.0119551706 1.7784420369 19.5628624416
1907 1 32.0119551706 1.7784420369 23.1197451638
1908 1 32.0119551706 1.7784420369 26.6766300202
1909 1 32.0119551706 1.7784420369 30.2335148765
1910 1 32.0119551706 1.7784420369 33.7903975987
1911 1 32.0119551706 5.3353262174 1.7784420369
1912 1 32.0119551706 5.3353262174 5.3353262174
1913 1 32.0119551706 5.3353262174 8.8922100067
1914 1 32.0119551706 5.3353262174 12.449093796
1915 1 32.0119551706 5.3353262174 16.0059775853
1916 1 32.0119551706 5.3353262174 19.5628624416
1917 1 32.0119551706 5.3353262174 23.1197451638
1918 1 32.0119551706 5.3353262174 26.6766300202
1919 1 32.0119551706 5.3353262174 30.2335148765
1920 1 32.0119551706 5.3353262174 33.7903975987
1921 1 32.0119551706 8.8922100067 1.7784420369
1922 1 32.0119551706 8.8922100067 5.3353262174
1923 1 32.0119551706 8.8922100067 8.8922100067
1924 1 32.0119551706 8.8922100067 12.449093796
1925 1 32.0119551706 8.8922100067 16.0059775853
1926 1 32.0119551706 8.8922100067 19.5628624416
1927 1 32.0119551706 8.8922100067 23.1197451638
1928 1 32.0119551706 8.8922100067 26.6766300202
1929 1 32.0119551706 8.8922100067 30.2335148765
1930 1 32.0119551706 8.8922100067 33.7903975987
1931 1 32.0119551706 12.449093796 1.7784420369
1932 1 32.0119551706 12.449093796 5.3353262174
1933 1 32.0119551706 12.449093796 8.8922100067
1934 1 32.0119551706 12.449093796 12.449093796
1935 1 32.0119551706 12.449093796 16.0059775853
1936 1 32.0119551706 12.449093796 19.5628624416
1937 1 32.0119551706 12.449093796 23.1197451638
1938 1 32.0119551706 12.449093796 26.6766300202
1939 1 32.0119551706 12.449093796 30.2335148765
1940 1 32.0119551706 12.449093796 33.7903975987
1941 1 32.0119551706 16.0059775853 1.7784420369
1942 1 32.0119551706 16.0059775853 5.3353262174
1943 1 32.0119551706 16.0059775853 8.8922100067
1944 1 32.0119551706 16.0059775853 12.449093796
1945 1 32.0119551706 16.0059775853 16.0059775853
1946 1 32.0119551706 16.0059775853 19.5628624416
1947 1 32.0119551706 16.0059775853 23.1197451638
1948 1 32.0119551706 16.0059775853 26.6766300202
1949 1 32.0119551706 16.0059775853 30.2335148765
1950 1 32.0119551706 16.0059775853 33.7903975987
1951 1 32.0119551706 19.5628624416 1.7784420369
1952 1 32.0119551706 19.5628624416 5.3353262174
1953 1 32.0119551706 19.5628624416 8.8922100067
1954 1 32.0119551706 19.5628624416 12.449093796
1955 1 32.0119551706 19.5628624416 16.0059775853
1956 1 32.0119551706 19.5628624416 19.5628624416
1957 1 32.0119551706 19.5628624416 23.1197451638
1958 1 32.0119551706 19.5628624416 26.6766300202
1959 1 32.0119551706 19.5628624416 30.2335148765
1960 1 32.0119551706 19.5628624416 33.7903975987
1961 1 32.0119551706 23.1197451638 1.7784420369
1962 1 32.0119551706 23.1197451638 5.3353262174
1963 1 32.0119551706 23.1197451638 8.8922100067
1964 1 32.0119551706 23.1197451638 12.449093796
1965 1 32.0119551706 23.1197451638 16.0059775853
1966 1 32.0119551706 23.1197451638 19.5628624416
1967 1 32.0119551706 23.1197451638 23.1197451638
1968 1 32.0119551706 23.1197451638 26.6766300202
1969 1 32.0119551706 23.1197451638 30.2335148765
1970 1 32.0119551706 23.1197451638 33.7903975987
1971 1 32.0119551706 26.6766300202 1.7784420369
1972 1 32.0119551706 26.6766300202 5.3353262174
1973 1 32.0119551706 26.6766300202 8.8922100067
1974 1 32.0119551706 26.6766300202 12.449093796
1975 1 32.0119551706 26.6766300202 16.0059775853
1976 1 32.0119551706 26.6766300202 19.5628624416
1977 1 32.0119551706 26.6766300202 23.1197451638
1978 1 32.0119551706 26.6766300202 26.6766300202
1979 1 32.0119551706 26.6766300202 30.2335148765
1980 1 32.0119551706 26.6766300202 33.7903975987
1981 1 32.0119551706 30.2335148765 1.7784420369
1982 1 32.0119551706 30.2335148765 5.3353262174
1983 1 32.0119551706 30.2335148765 8.8922100067
1984 1 32.0119551706 30.2335148765 12.449093796
1985 1 32.0119551706 30.2335148765 16.0059775853
1986 1 32.0119551706 30.2335148765 19.5628624416
1987 1 32.0119551706 30.2335148765 23.1197451638
1988 1 32.0119551706 30.2335148765 26.6766300202
1989 1 32.0119551706 30.2335148765 30.2335148765
1990 1 32.0119551706 30.2335148765 33.7903975987
1991 1 32.0119551706 33.7903975987 1.7784420369
1992 1 32.0119551706 33.7903975987 5.3353262174
1993 1 32.0119551706 33.7903975987 8.8922100067
1994 1 32.0119551706 33.7903975987 12.449093796
1995 1 32.0119551706 33.7903975987 16.0059775853
1996 1 32.0119551706 33.7903975987 19.5628624416
1997 1 32.0119551706 33.7903975987 23.1197451638
1998 1 32.0119551706 33.7903975987 26.6766300202
1999 1 32.0119551706 33.7903975987 30.2335148765
2000 1 32.0119551706 33.7903975987 33.7903975987
2001 1 1.7784420369 1.7784420369 0.0
2002 1 1.7784420369 1.7784420369 3.5568840383
2003 1 1.7784420369 1.7784420369 7.1137681121
2004 1 1.7784420369 1.7784420369 10.6706524349
2005 1 1.7784420369 1.7784420369 14.2275362242
2006 1 1.7784420369 1.7784420369 17.7844200134
2007 1 1.7784420369 1.7784420369 21.3413048698
2008 1 1.7784420369 1.7784420369 24.898187592
2009 1 1.7784420369 1.7784420369 28.4550724483
2010 1 1.7784420369 1.7784420369 32.0119551706
2011 1 1.7784420369 5.3353262174 0.0
2012 1 1.7784420369 5.3353262174 3.5568840383
2013 1 1.7784420369 5.3353262174 7.1137681121
2014 1 1.7784420369 5.3353262174 10.6706524349
2015 1 1.7784420369 5.3353262174 14.2275362242
2016 1 1.7784420369 5.3353262174 17.7844200134
2017 1 1.7784420369 5.3353262174 21.3413048698
2018 1 1.7784420369 5.3353262174 24.898187592
2019 1 1.7784420369 5.3353262174 28.4550724483
2020 1 1.7784420369 5.3353262174 32.0119551706
2021 1 1.7784420369 8.8922100067 0.0
2022 1 1.7784420369 8.8922100067 3.5568840383
2023 1 1.7784420369 8.8922100067 7.1137681121
2024 1 1.7784420369 8.8922100067 10.6706524349
2025 1 1.7784420369 8.8922100067 14.2275362242
2026 1 1.7784420369 8.8922100067 17.7844200134
2027 1 1.7784420369 8.8922100067 21.3413048698
2028 1 1.7784420369 8.8922100067 24.898187592
2029 1 1.7784420369 8.8922100067 28.4550724483
2030 1 1.7784420369 8.8922100067 32.0119551706
2031 1 1.7784420369 12.449093796 0.0
2032 1 1.7784420369 12.449093796 3.5568840383
2033 1 1.7784420369 12.449093796 7.1137681121
2034 1 1.7784420369 12.449093796 10.6706524349
2035 1 1.7784420369 12.449093796 14.2275362242
2036 1 1.7784420369 12.449093796 17.7844200134
2037 1 1.7784420369 12.449093796 21.3413048698
2038 1 1.7784420369 12.449093796 24.898187592
2039 1 1.7784420369 12.449093796 28.4550724483
2040 1 1.7784420369 12.449093796 32.0119551706
2041 1 1.7784420369 16.0059775853 0.0
2042 1 1.7784420369 16.0059775853 3.5568840383
2043 1 1.7784420369 16.0059775853 7.1137681121
2044 1 1.7784420369 16.0059775853 10.6706524349
2045 1 1.7784420369 16.0059775853 14.2275362242
2046 1 1.7784420369 16.0059775853 17.7844200134
2047 1 1.7784420369 16.0059775853 21.3413048698
2048 1 1.7784420369 16.0059775853 24.898187592
2049 1 1.7784420369 16.0059775853 28.4550724483
2050 1 1.7784420369 16.0059775853 32.0119551706
2051 1 1.7784420369 19.5628624416 0.0
2052 1 1.7784420369 19.5628624416 3.5568840383
2053 1 1.7784420369 19.5628624416 7.1137681121
2054 1 1.7784420369 19.5628624416 10.6706524349
2055 1 1.7784420369 19.5628624416 14.2275362242
2056 1 1.7784420369 19.5628624416 17.7844200134
2057 1 1.7784420369 19.5628624416 21.3413048698
2058 1 1.7784420369 19.5628624416 24.898187592
2059 1 1.7784420369 19.5628624416 28.4550724483
2060 1 1.7784420369 19.5628624416 32.0119551706
2061 1 1.7784420369 23.1197451638 0.0
2062 1 1.7784420369 23.1197451638 3.5568840383
2063 1 1.7784420369 23.1197451638 7.1137681121
2064 1 1.7784420369 23.1197451638 10.6706524349
2065 1 1.7784420369 23.1197451638 14.2275362242
2066 1 1.7784420369 23.1197451638 17.7844200134
2067 1 1.7784420369 23.1197451638 21.3413048698
2068 1 1.7784420369 23.1197451638 24.898187592
2069 1 1.7784420369 23.1197451638 28.4550724483
2070 1 1.7784420369 23.1197451638 32.0119551706
2071 1 1.7784420369 26.6766300202 0.0
2072 1 1.7784420369 26.6766300202 3.5568840383
2073 1 1.7784420369 26.6766300202 7.1137681121
2074 1 1.7784420369 26.6766300202 10.6706524349
2075 1 1.7784420369 26.6766300202 14.2275362242
2076 1 1.7784420369 26.6766300202 17.7844200134
2077 1 1.7784420369 26.6766300202 21.3413048698
2078 1 1.7784420369 26.6766300202 24.898187592
2079 1 1.7784420369 26.6766300202 28.4550724483
2080 1 1.7784420369 26.6766300202 32.0119551706
2081 1 1.7784420369 30.2335148765 0.0
2082 1 1.7784420369 30.2335148765 3.5568840383
2083 1 1.7784420369 30.2335148765 7.1137681121
2084 1 1.7784420369 30.2335148765 10.6706524349
2085 1 1.7784420369 30.2335148765 14.2275362242
2086 1 1.7784420369 30.2335148765 17.7844200134
2087 1 1.7784420369 30.2335148765 21.3413048698
2088 1 1.7784420369 30.2335148765 24.898187592
2089 1 1.7784420369 30.2335148765 28.4550724483
2090 1 1.7784420369 30.2335148765 32.0119551706
2091 1 1.7784420369 33.7903975987 0.0
2092 1 1.7784420369 33.7903975987 3.5568840383
2093 1 1.7784420369 33.7903975987 7.1137681121
2094 1 1.7784420369 33.7903975987 10.6706524349
2095 1 1.7784420369 33.7903975987 14.2275362242
2096 1 1.7784420369 33.7903975987 17.7844200134
2097 1 1.7784420369 33.7903975987 21.3413048698
2098 1 1.7784420369 33.7903975987 24.898187592
2099 1 1.7784420369 33.7903975987 28.4550724483
2100 1 1.7784420369 33.7903975987 32.0119551706
2101 1 5.3353262174 1.7784420369 0.0
2102 1 5.3353262174 1.7784420369 3.5568840383
2103 1 5.3353262174 1.7784420369 7.1137681121
2104 1 5.3353262174 1.7784420369 10.6706524349
2105 1 5.3353262174 1.7784420369 14.2275362242
2106 1 5.3353262174 1.7784420369 17.7844200134
2107 1 5.3353262174 1.7784420369 21.3413048698
2108 1 5.3353262174 1.7784420369 24.898187592
2109 1 5.3353262174 1.7784420369 28.4550724483
2110 1 5.3353262174 1.7784420369 32.0119551706
2111 1 5.3353262174 5.3353262174 0.0
2112 1 5.3353262174 5.3353262174 3.5568840383
2113 1 5.3353262174 5.3353262174 7.1137681121
2114 1 5.3353262174 5.3353262174 10.6706524349
2115 1 5.3353262174 5.3353262174 14.2275362242
2116 1 5.3353262174 5.3353262174 17.7844200134
2117 1 5.3353262174 5.3353262174 21.3413048698
2118 1 5.3353262174 5.3353262174 24.898187592
2119 1 5.3353262174 5.3353262174 28.4550724483
2120 1 5.3353262174 5.3353262174 32.0119551706
2121 1 5.3353262174 8.8922100067 0.0
2122 1 5.3353262174 8.8922100067 3.5568840383
2123 1 5.3353262174 8.8922100067 7.1137681121
2124 1 5.3353262174 8.8922100067 10.6706524349
2125 1 5.3353262174 8.8922100067 14.2275362242
2126 1 5.3353262174 8.8922100067 17.7844200134
2127 1 5.3353262174 8.8922100067 21.3413048698
2128 1 5.3353262174 8.8922100067 24.898187592
2129 1 5.3353262174 8.8922100067 28.4550724483
2130 1 5.3353262174 8.8922100067 32.0119551706
2131 1 5.3353262174 12.449093796 0.0
2132 1 5.3353262174 12.449093796 3.5568840383
2133 1 5.3353262174 12.449093796 7.1137681121
2134 1 5.3353262174 12.449093796 10.6706524349
2135 1 5.3353262174 12.449093796 14.2275362242
2136 1 5.3353262174 12.449093796 17.7844200134
2137 1 5.3353262174 12.449093796 21.3413048698
2138 1 5.3353262174 12.449093796 24.898187592
2139 1 5.3353262174 12.449093796 28.4550724483
2140 1 5.3353262174 12.449093796 32.0119551706
2141 1 5.3353262174 16.0059775853 0.0
2142 1 5.3353262174 16.0059775853 3.5568840383
2143 1 5.3353262174 16.0059775853 7.1137681121
2144 1 5.3353262174 16.0059775853 10.6706524349
2145 1 5.3353262174 16.0059775853 14.2275362242
2146 1 5.3353262174 16.0059775853 17.7844200134
2147 1 5.3353262174 16.0059775853 21.3413048698
2148 1 5.3353262174 16.0059775853 24.898187592
2149 1 5.3353262174 16.0059775853 28.4550724483
2150 1 5.3353262174 16.0059775853 32.0119551706
2151 1 5.3353262174 19.5628624416 0.0
2152 1 5.3353262174 19.5628624416 3.5568840383
2153 1 5.3353262174 19.5628624416 7.1137681121
2154 1 5.3353262174 19.5628624416 10.6706524349
2155 1 5.3353262174 19.5628624416 14.2275362242
2156 1 5.3353262174 19.5628624416 17.7844200134
2157 1 5.3353262174 19.5628624416 21.3413048698
2158 1 5.3353262174 19.5628624416 24.898187592
2159 1 5.3353262174 19.5628624416 28.4550724483
2160 1 5.3353262174 19.5628624416 32.0119551706
2161 1 5.3353262174 23.1197451638 0.0
2162 1 5.3353262174 23.1197451638 3.5568840383
2163 1 5.3353262174 23.1197451638 7.1137681121
2164 1 5.3353262174 23.1197451638 10.6706524349
2165 1 5.3353262174 23.1197451638 14.2275362242
2166 1 5.3353262174 23.1197451638 17.7844200134
2167 1 5.3353262174 23.1197451638 21.3413048698
2168 1 5.3353262174 23.1197451638 24.898187592
2169 1 5.3353262174 23.1197451638 28.4550724483
2170 1 5.3353262174 23.1197451638 32.0119551706
2171 1 5.3353262174 26.6766300202 0.0
2172 1 5.3353262174 26.6766300202 3.5568840383
2173 1 5.3353262174 26.6766300202 7.1137681121
2174 1 5.3353262174 26.6766300202 10.6706524349
2175 1 5.3353262174 26.6766300202 14.2275362242
2176 1 5.3353262174 26.6766300202 17.7844200134
2177 1 5.3353262174 26.6766300202 21.3413048698
2178 1 5.3353262174 26.6766300202 24.898187592
2179 1 5.3353262174 26.6766300202 28.4550724483
2180 1 5.3353262174 26.6766300202 32.0119551706
2181 1 5.3353262174 30.2335148765 0.0
2182 1 5.3353262174 30.2335148765 3.5568840383
2183 1 5.3353262174 30.2335148765 7.1137681121
2184 1 5.3353262174 30.2335148765 10.6706524349
2185 1 5.3353262174 30.2335148765 14.2275362242
2186 1 5.3353262174 30.2335148765 17.7844200134
2187 1 5.3353262174 30.2335148765 21.3413048698
2188 1 5.3353262174 30.2335148765 24.898187592
2189 1 5.3353262174 30.2335148765 28.4550724483
2190 1 5.3353262174 30.2335148765 32.0119551706
2191 1 5.3353262174 33.7903975987 0.0
2192 1 5.3353262174 33.7903975987 3.5568840383
2193 1 5.3353262174 33.7903975987 7.1137681121
2194 1 5.3353262174 33.7903975987 10.6706524349
2195 1 5.3353262174 33.7903975987 14.2275362242
2196 1 5.3353262174 33.7903975987 17.7844200134
2197 1 5.3353262174 33.7903975987 21.3413048698
2198 1 5.3353262174 33.7903975987 24.898187592
2199 1 5.3353262174 33.7903975987 28.4550724483
2200 1 5.3353262174 33.7903975987 32.0119551706
2201 1 8.8922100067 1.7784420369 0.0
2202 1 8.8922100067 1.7784420369 3.5568840383
2203 1 8.8922100067 1.7784420369 7.1137681121
2204 1 8.8922100067 1.7784420369 10.6706524349
2205 1 8.8922100067 1.7784420369 14.2275362242
2206 1 8.8922100067 1.7784420369 17.7844200134
2207 1 8.8922100067 1.7784420369 21.3413048698
2208 1 8.8922100067 1.7784420369 24.898187592
2209 1 8.8922100067 1.7784420369 28.4550724483
2210 1 8.8922100067 1.7784420369 32.0119551706
2211 1 8.8922100067 5.3353262174 0.0
2212 1 8.8922100067 5.3353262174 3.5568840383
2213 1 8.8922100067 5.3353262174 7.1137681121
2214 1 8.8922100067 5.3353262174 10.6706524349
2215 1 8.8922100067 5.3353262174 14.2275362242
2216 1 8.8922100067 5.3353262174 17.7844200134
2217 1 8.8922100067 5.3353262174 21.3413048698
2218 1 8.8922100067 5.3353262174 24.898187592
2219 1 8.8922100067 5.3353262174 28.4550724483
2220 1 8.8922100067 5.3353262174 32.0119551706
2221 1 8.8922100067 8.8922100067 0.0
2222 1 8.8922100067 8.8922100067 3.5568840383
2223 1 8.8922100067 8.8922100067 7.1137681121
2224 1 8.8922100067 8.8922100067 10.6706524349
2225 1 8.8922100067 8.8922100067 14.2275362242
2226 1 8.8922100067 8.8922100067 17.7844200134
2227 1 8.8922100067 8.8922100067 21.3413048698
2228 1 8.8922100067 8.8922100067 24.898187592
2229 1 8.8922100067 8.8922100067 28.4550724483
2230 1 8.8922100067 8.8922100067 32.0119551706
2231 1 8.8922100067 12.449093796 0.0
2232 1 8.8922100067 12.449093796 3.5568840383
2233 1 8.8922100067 12.449093796 7.1137681121
2234 1 8.8922100067 12.449093796 10.6706524349
2235 1 8.8922100067 12.449093796 14.2275362242
2236 1 8.8922100067 12.449093796 17.7844200134
2237 1 8.8922100067 12.449093796 21.3413048698
2238 1 8.8922100067 12.449093796 24.898187592
2239 1 8.8922100067 12.449093796 28.4550724483
2240 1 8.8922100067 12.449093796 32.0119551706
2241 1 8.8922100067 16.0059775853 0.0
2242 1 8.8922100067 16.0059775853 3.5568840383
2243 1 8.8922100067 16.0059775853 7.1137681121
2244 1 8.8922100067 16.0059775853 10.6706524349
2245 1 8.8922100067 16.0059775853 14.2275362242
2246 1 8.8922100067 16.0059775853 17.7844200134
2247 1 8.8922100067 16.0059775853 21.3413048698
2248 1 8.8922100067 16.0059775853 24.898187592
2249 1 8.8922100067 16.0059775853 28.4550724483
2250 1 8.8922100067 16.0059775853 32.0119551706
2251 1 8.8922100067 19.5628624416 0.0
2252 1 8.8922100067 19.5628624416 3.5568840383
2253 1 8.8922100067 19.5628624416 7.1137681121
2254 1 8.8922100067 19.5628624416 10.6706524349
2255 1 8.8922100067 19.5628624416 14.2275362242
2256 1 8.8922100067 19.5628624416 17.7844200134
2257 1 8.8922100067 19.5628624416 21.3413048698
2258 1 8.8922100067 19.5628624416 24.898187592
2259 1 8.8922100067 19.5628624416 28.4550724483
2260 1 8.8922100067 19.5628624416 32.0119551706
2261 1 8.8922100067 23.1197451638 0.0
2262 1 8.8922100067 23.1197451638 3.5568840383
2263 1 8.8922100067 23.1197451638 7.1137681121
2264 1 8.8922100067 23.1197451638 10.6706524349
2265 1 8.8922100067 23.1197451638 14.2275362242
2266 1 8.8922100067 23.1197451638 17.7844200134
2267 1 8.8922100067 23.1197451638 21.3413048698
2268 1 8.8922100067 23.1197451638 24.898187592
2269 1 8.8922100067 23.1197451638 28.4550724483
2270 1 8.8922100067 23.1197451638 32.0119551706
2271 1 8.8922100067 26.6766300202 0.0
2272 1 8.8922100067 26.6766300202 3.5568840383
2273 1 8.8922100067 26.6766300202 7.1137681121
2274 1 8.8922100067 26.6766300202 10.6706524349
2275 1 8.8922100067 26.6766300202 14.2275362242
2276 1 8.8922100067 26.6766300202 17.7844200134
2277 1 8.8922100067 26.6766300202 21.3413048698
2278 1 8.8922100067 26.6766300202 24.898187592
2279 1 8.8922100067 26.6766300202 28.4550724483
2280 1 8.8922100067 26.6766300202 32.0119551706
2281 1 8.8922100067 30.2335148765 0.0
2282 1 8.8922100067 30.2335148765 3.5568840383
2283 1 8.8922100067 30.2335148765 7.1137681121
2284 1 8.8922100067 30.2335148765 10.6706524349
2285 1 8.8922100067 30.2335148765 14.2275362242
2286 1 8.8922100067 30.2335148765 17.7844200134
2287 1 8.8922100067 30.2335148765 21.3413048698
2288 1 8.8922100067 30.2335148765 24.898187592
2289 1 8.8922100067 30.2335148765 28.4550724483
2290 1 8.8922100067 30.2335148765 32.0119551706
2291 1 8.8922100067 33.7903975987 0.0
2292 1 8.8922100067 33.7903975987 3.5568840383
2293 1 8.8922100067 33.7903975987 7.1137681121
2294 1 8.8922100067 33.7903975987 10.6706524349
2295 1 8.8922100067 33.7903975987 14.2275362242
2296 1 8.8922100067 33.7903975987 17.7844200134
2297 1 8.8922100067 33.7903975987 21.3413048698
2298 1 8.8922100067 33.7903975987 24.898187592
2299 1 8.8922100067 33.7903975987 28.4550724483
2300 1 8.8922100067 33.7903975987 32.0119551706
2301 1 12.449093796 1.7784420369 0.0
2302 1 12.449093796 1.7784420369 3.5568840383
2303 1 12.449093796 1.7784420369 7.1137681121
2304 1 12.449093796 1.7784420369 10.6706524349
2305 1 12.449093796 1.7784420369 14.2275362242
2306 1 12.449093796 1.7784420369 17.7844200134
2307 1 12.449093796 1.7784420369 21.3413048698
2308 1 12.449093796 1.7784420369 24.898187592
2309 1 12.449093796 1.7784420369 28.4550724483
2310 1 12.449093796 1.7784420369 32.0119551706
2311 1 12.449093796 5.3353262174 0.0
2312 1 12.449093796 5.3353262174 3.5568840383
2313 1 12.449093796 5.3353262174 7.1137681121
2314 1 12.449093796 5.3353262174 10.6706524349
2315 1 12.449093796 5.3353262174 14.2275362242
2316 1 12.449093796 5.3353262174 17.7844200134
2317 1 12.449093796 5.3353262174 21.3413048698
2318 1 12.449093796 5.3353262174 24.898187592
2319 1 12.449093796 5.3353262174 28.4550724483
2320 1 12.449093796 5.3353262174 32.0119551706
2321 1 12.449093796 8.8922100067 0.0
2322 1 12.449093796 8.8922100067 3.5568840383
2323 1 12.449093796 8.8922100067 7.1137681121
2324 1 12.449093796 8.8922100067 10.6706524349
2325 1 12.449093796 8.8922100067 14.2275362242
2326 1 12.449093796 8.8922100067 17.7844200134
2327 1 12.449093796 8.8922100067 21.3413048698
2328 1 12.449093796 8.8922100067 24.898187592
2329 1 12.449093796 8.8922100067 28.4550724483
2330 1 12.449093796 8.8922100067 32.0119551706
2331 1 12.449093796 12.449093796 0.0
2332 1 12.449093796 12.449093796 3.5568840383
2333 1 12.449093796 12.449093796 7.1137681121
2334 1 12.449093796 12.449093796 10.6706524349
2335 1 12.449093796 12.449093796 14.2275362242
2336 1 12.449093796 12.449093796 17.7844200134
2337 1 12.449093796 12.449093796 21.3413048698
2338 1 12.449093796 12.449093796 24.898187592
2339 1 12.449093796 12.449093796 28.4550724483
2340 1 12.449093796 12.449093796 32.0119551706
2341 1 12.449093796 16.0059775853 0.0
2342 1 12.449093796 16.0059775853 3.5568840383
2343 1 12.449093796 16.0059775853 7.1137681121
2344 1 12.449093796 16.0059775853 10.6706524349
2345 1 12.449093796 16.0059775853 14.2275362242
2346 1 12.449093796 16.0059775853 17.7844200134
2347 1 12.449093796 16.0059775853 21.3413048698
2348 1 12.449093796 16.0059775853 24.898187592
2349 1 12.449093796 16.0059775853 28.4550724483
2350 1 12.449093796 16.0059775853 32.0119551706
2351 1 12.449093796 19.5628624416 0.0
2352 1 12.449093796 19.5628624416 3.5568840383
2353 1 12.449093796 19.5628624416 7.1137681121
2354 1 12.449093796 19.5628624416 10.6706524349
2355 1 12.449093796 19.5628624416 14.2275362242
2356 1 12.449093796 19.5628624416 17.7844200134
2357 1 12.449093796 19.5628624416 21.3413048698
2358 1 12.449093796 19.5628624416 24.898187592
2359 1 12.449093796 19.5628624416 28.4550724483
2360 1 12.449093796 19.5628624416 32.0119551706
2361 1 12.449093796 23.1197451638 0.0
2362 1 12.449093796 23.1197451638 3.5568840383
2363 1 12.449093796 23.1197451638 7.1137681121
2364 1 12.449093796 23.1197451638 10.6706524349
2365 1 12.449093796 23.1197451638 14.2275362242
2366 1 12.449093796 23.1197451638 17.7844200134
2367 1 12.449093796 23.1197451638 21.3413048698
2368 1 12.449093796 23.1197451638 24.898187592
2369 1 12.449093796 23.1197451638 28.4550724483
2370 1 12.449093796 23.1197451638 32.0119551706
2371 1 12.449093796 26.6766300202 0.0
2372 1 12.449093796 26.6766300202 3.5568840383
2373 1 12.449093796 26.6766300202 7.1137681121
2374 1 12.449093796 26.6766300202 10.6706524349
2375 1 12.449093796 26.6766300202 14.2275362242
2376 1 12.449093796 26.6766300202 17.7844200134
2377 1 12.449093796 26.6766300202 21.3413048698
2378 1 12.449093796 26.6766300202 24.898187592
2379 1 12.449093796 26.6766300202 28.4550724483
2380 1 12.449093796 26.6766300202 32.0119551706
2381 1 12.449093796 30.2335148765 0.0
2382 1 12.449093796 30.2335148765 3.5568840383
2383 1 12.449093796 30.2335148765 7.1137681121
2384 1 12.449093796 30.2335148765 10.6706524349
2385 1 12.449093796 30.2335148765 14.2275362242
2386 1 12.449093796 30.2335148765 17.7844200134
2387 1 12.449093796 30.2335148765 21.3413048698
2388 1 12.449093796 30.2335148765 24.898187592
2389 1 12.449093796 30.2335148765 28.4550724483
2390 1 12.449093796 30.2335148765 32.0119551706
2391 1 12.449093796 33.7903975987 0.0
2392 1 12.449093796 33.7903975987 3.5568840383
2393 1 12.449093796 33.7903975987 7.1137681121
2394 1 12.449093796 33.7903975987 10.6706524349
2395 1 12.449093796 33.7903975987 14.2275362242
2396 1 12.449093796 33.7903975987 17.7844200134
2397 1 12.449093796 33.7903975987 21.3413048698
2398 1 12.449093796 33.7903975987 24.898187592
2399 1 12.449093796 33.7903975987 28.4550724483
2400 1 12.449093796 33.7903975987 32.0119551706
2401 1 16.0059775853 1.7784420369 0.0
2402 1 16.0059775853 1.7784420369 3.5568840383
2403 1 16.0059775853 1.7784420369 7.1137681121
2404 1 16.0059775853 1.7784420369 10.6706524349
2405 1 16.0059775853 1.7784420369 14.2275362242
2406 1 16.0059775853 1.7784420369 17.7844200134
2407 1 16.0059775853 1.7784420369 21.3413048698
2408 1 16.0059775853 1.7784420369 24.898187592
2409 1 16.0059775853 1.7784420369 28.4550724483
2410 1 16.0059775853 1.7784420369 32.0119551706
2411 1 16.0059775853 5.3353262174 0.0
2412 1 16.0059775853 5.3353262174 3.5568840383
2413 1 16.0059775853 5.3353262174 7.1137681121
2414 1 16.0059775853 5.3353262174 10.6706524349
2415 1 16.0059775853 5.3353262174 14.2275362242
2416 1 16.0059775853 5.3353262174 17.7844200134
2417 1 16.0059775853 5.3353262174 21.3413048698
2418 1 16.0059775853 5.3353262174 24.898187592
2419 1 16.0059775853 5.3353262174 28.4550724483
2420 1 16.0059775853 5.3353262174 32.0119551706
2421 1 16.0059775853 8.8922100067 0.0
2422 1 16.0059775853 8.8922100067 3.5568840383
2423 1 16.0059775853 8.8922100067 7.1137681121
2424 1 16.0059775853 8.8922100067 10.6706524349
2425 1 16.0059775853 8.8922100067 14.2275362242
2426 1 16.0059775853 8.8922100067 17.7844200134
2427 1 16.0059775853 8.8922100067 21.3413048698
2428 1 16.0059775853 8.8922100067 24.898187592
2429 1 16.0059775853 8.8922100067 28.4550724483
2430 1 16.0059775853 8.8922100067 32.0119551706
2431 1 16.0059775853 12.449093796 0.0
2432 1 16.0059775853 12.449093796 3.5568840383
2433 1 16.0059775853 12.449093796 7.1137681121
2434 1 16.0059775853 12.449093796 10.6706524349
2435 1 16.0059775853 12.449093796 14.2275362242
2436 1 16.0059775853 12.449093796 17.7844200134
2437 1 16.0059775853 12.449093796 21.3413048698
2438 1 16.0059775853 12.449093796 24.898187592
2439 1 16.0059775853 12.449093796 28.4550724483
2440 1 16.0059775853 12.449093796 32.0119551706
2441 1 16.0059775853 16.0059775853 0.0
2442 1 16.0059775853 16.0059775853 3.5568840383
2443 1 16.0059775853 16.0059775853 7.1137681121
2444 1 16.0059775853 16.0059775853 10.6706524349
2445 1 16.0059775853 16.0059775853 14.2275362242
2446 1 16.0059775853 16.0059775853 17.7844200134
2447 1 16.0059775853 16.0059775853 21.3413048698
2448 1 16.0059775853 16.0059775853 24.898187592
2449 1 16.0059775853 16.0059775853 28.4550724483
2450 1 16.0059775853 16.0059775853 32.0119551706
2451 1 16.0059775853 19.5628624416 0.0
2452 1 16.0059775853 19.5628624416 3.5568840383
2453 1 16.0059775853 19.5628624416 7.1137681121
2454 1 16.0059775853 19.5628624416 10.6706524349
2455 1 16.0059775853 19.5628624416 14.2275362242
2456 1 16.0059775853 19.5628624416 17.7844200134
2457 1 16.0059775853 19.5628624416 21.3413048698
2458 1 16.0059775853 19.5628624416 24.898187592
2459 1 16.0059775853 19.5628624416 28.4550724483
2460 1 16.0059775853 19.5628624416 32.0119551706
2461 1 16.0059775853 23.1197451638 0.0
2462 1 16.0059775853 23.1197451638 3.5568840383
2463 1 16.0059775853 23.1197451638 7.1137681121
2464 1 16.0059775853 23.1197451638 10.6706524349
2465 1 16.0059775853 23.1197451638 14.2275362242
2466 1 16.0059775853 23.1197451638 17.7844200134
2467 1 16.0059775853 23.1197451638 21.3413048698
2468 1 16.0059775853 23.1197451638 24.898187592
2469 1 16.0059775853 23.1197451638 28.4550724483
2470 1 16.0059775853 23.1197451638 32.0119551706
2471 1 16.0059775853 26.6766300202 0.0
2472 1 16.0059775853 26.6766300202 3.5568840383
2473 1 16.0059775853 26.6766300202 7.1137681121
2474 1 16.0059775853 26.6766300202 10.6706524349
2475 1 16.0059775853 26.6766300202 14.2275362242
2476 1 16.0059775853 26.6766300202 17.7844200134
2477 1 16.0059775853 26.6766300202 21.3413048698
2478 1 16.0059775853 26.6766300202 24.898187592
2479 1 16.0059775853 26.6766300202 28.4550724483
2480 1 16.0059775853 26.6766300202 32.0119551706
2481 1 16.0059775853 30.2335148765 0.0
2482 1 16.0059775853 30.2335148765 3.5568840383
2483 1 16.0059775853 30.2335148765 7.1137681121
2484 1 16.0059775853 30.2335148765 10.6706524349
2485 1 16.0059775853 30.2335148765 14.2275362242
2486 1 16.0059775853 30.2335148765 17.7844200134
2487 1 16.0059775853 30.2335148765 21.3413048698
2488 1 16.0059775853 30.2335148765 24.898187592
2489 1 16.0059775853 30.2335148765 28.4550724483
2490 1 16.0059775853 30.2335148765 32.0119551706
2491 1 16.0059775853 33.7903975987 0.0
2492 1 16.0059775853 33.7903975987 3.5568840383
2493 1 16.0059775853 33.7903975987 7.1137681121
2494 1 16.0059775853 33.7903975987 10.6706524349
2495 1 16.0059775853 33.7903975987 14.2275362242
2496 1 16.0059775853 33.7903975987 17.7844200134
2497 1 16.0059775853 33.7903975987 21.3413048698
2498 1 16.0059775853 33.7903975987 24.898187592
2499 1 16.0059775853 33.7903975987 28.4550724483
2500 1 16.0059775853 33.7903975987 32.0119551706
2501 1 19.5628624416 1.7784420369 0.0
2502 1 19.5628624416 1.7784420369 3.5568840383
2503 1 19.5628624416 1.7784420369 7.1137681121
2504 1 19.5628624416 1.7784420369 10.6706524349
2505 1 19.5628624416 1.7784420369 14.2275362242
2506 1 19.5628624416 1.7784420369 17.7844200134
2507 1 19.5628624416 1.7784420369 21.3413048698
2508 1 19.5628624416 1.7784420369 24.898187592
2509 1 19.5628624416 1.7784420369 28.4550724483
2510 1 19.5628624416 1.7784420369 32.0119551706
2511 1 19.5628624416 5.3353262174 0.0
2512 1 19.5628624416 5.3353262174 3.5568840383
2513 1 19.5628624416 5.3353262174 7.1137681121
2514 1 19.5628624416 5.3353262174 10.6706524349
2515 1 19.5628624416 5.3353262174 14.2275362242
2516 1 19.5628624416 5.3353262174 17.7844200134
2517 1 19.5628624416 5.3353262174 21.3413048698
2518 1 19.5628624416 5.3353262174 24.898187592
2519 1 19.5628624416 5.3353262174 28.4550724483
2520 1 19.5628624416 5.3353262174 32.0119551706
2521 1 19.5628624416 8.8922100067 0.0
2522 1 19.5628624416 8.8922100067 3.5568840383
2523 1 19.5628624416 8.8922100067 7.1137681121
2524 1 19.5628624416 8.8922100067 10.6706524349
2525 1 19.5628624416 8.8922100067 14.2275362242
2526 1 19.5628624416 8.8922100067 17.7844200134
2527 1 19.5628624416 8.8922100067 21.3413048698
2528 1 19.5628624416 8.8922100067 24.898187592
2529 1 19.5628624416 8.8922100067 28.4550724483
2530 1 19.5628624416 8.8922100067 32.0119551706
2531 1 19.5628624416 12.449093796 0.0
2532 1 19.5628624416 12.449093796 3.5568840383
2533 1 19.5628624416 12.449093796 7.1137681121
2534 1 19.5628624416 12.449093796 10.6706524349
2535 1 19.5628624416 12.449093796 14.2275362242
2536 1 19.5628624416 12.449093796 17.7844200134
2537 1 19.5628624416 12.449093796 21.3413048698
2538 1 19.5628624416 12.449093796 24.898187592
2539 1 19.5628624416 12.449093796 28.4550724483
2540 1 19.5628624416 12.449093796 32.0119551706
2541 1 19.5628624416 16.0059775853 0.0
2542 1 19.5628624416 16.0059775853 3.5568840383
2543 1 19.5628624416 16.0059775853 7.1137681121
2544 1 19.5628624416 16.0059775853 10.6706524349
2545 1 19.5628624416 16.0059775853 14.2275362242
2546 1 19.5628624416 16.0059775853 17.7844200134
2547 1 19.5628624416 16.0059775853 21.3413048698
2548 1 19.5628624416 16.0059775853 24.898187592
2549 1 19.5628624416 16.0059775853 28.4550724483
2550 1 19.5628624416 16.0059775853 32.0119551706
2551 1 19.5628624416 19.5628624416 0.0
2552 1 19.5628624416 19.5628624416 3.5568840383
2553 1 19.5628624416 19.5628624416 7.1137681121
2554 1 19.5628624416 19.5628624416 10.6706524349
2555 1 19.5628624416 19.5628624416 14.2275362242
2556 1 19.5628624416 19.5628624416 17.7844200134
2557 1 19.5628624416 19.5628624416 21.3413048698
2558 1 19.5628624416 19.5628624416 24.898187592
2559 1 19.5628624416 19.5628624416 28.4550724483
2560 1 19.5628624416 19.5628624416 32.0119551706
2561 1 19.5628624416 23.1197451638 0.0
2562 1 19.5628624416 23.1197451638 3.5568840383
2563 1 19.5628624416 23.1197451638 7.1137681121
2564 1 19.5628624416 23.1197451638 10.6706524349
2565 1 19.5628624416 23.1197451638 14.2275362242
2566 1 19.5628624416 23.1197451638 17.7844200134
2567 1 19.5628624416 23.1197451638 21.3413048698
2568 1 19.5628624416 23.1197451638 24.898187592
2569 1 19.5628624416 23.1197451638 28.4550724483
2570 1 19.5628624416 23.1197451638 32.0119551706
2571 1 19.5628624416 26.6766300202 0.0
2572 1 19.5628624416 26.6766300202 3.5568840383
2573 1 19.5628624416 26.6766300202 7.1137681121
2574 1 19.5628624416 26.6766300202 10.6706524349
2575 1 19.5628624416 26.6766300202 14.2275362242
2576 1 19.5628624416 26.6766300202 17.7844200134
2577 1 19.5628624416 26.6766300202 21.3413048698
2578 1 19.5628624416 26.6766300202 24.898187592
2579 1 19.5628624416 26.6766300202 28.4550724483
2580 1 19.5628624416 26.6766300202 32.0119551706
2581 1 19.5628624416 30.2335148765 0.0
2582 1 19.5628624416 30.2335148765 3.5568840383
2583 1 19.5628624416 30.2335148765 7.1137681121
2584 1 19.5628624416 30.2335148765 10.6706524349
2585 1 19.5628624416 30.2335148765 14.2275362242
2586 1 19.5628624416 30.2335148765 17.7844200134
2587 1 19.5628624416 30.2335148765 21.3413048698
2588 1 19.5628624416 30.2335148765 24.898187592
2589 1 19.5628624416 30.2335148765 28.4550724483
2590 1 19.5628624416 30.2335148765 32.0119551706
2591 1 19.5628624416 33.7903975987 0.0
2592 1 19.5628624416 33.7903975987 3.5568840383
2593 1 19.5628624416 33.7903975987 7.1137681121
2594 1 19.5628624416 33.7903975987 10.6706524349
2595 1 19.5628624416 33.7903975987 14.2275362242
2596 1 19.5628624416 33.7903975987 17.7844200134
2597 1 19.5628624416 33.7903975987 21.3413048698
2598 1 19.5628624416 33.7903975987 24.898187592
2599 1 19.5628624416 33.7903975987 28.4550724483
2600 1 19.5628624416 33.7903975987 32.0119551706
2601 1 23.1197451638 1.7784420369 0.0
2602 1 23.1197451638 1.7784420369 3.5568840383
2603 1 23.1197451638 1.7784420369 7.1137681121
2604 1 23.1197451638 1.7784420369 10.6706524349
2605 1 23.1197451638 1.7784420369 14.2275362242
2606 1 23.1197451638 1.7784420369 17.7844200134
2607 1 23.1197451638 1.7784420369 21.3413048698
2608 1 23.1197451638 1.7784420369 24.898187592
2609 1 23.1197451638 1.7784420369 28.4550724483
2610 1 23.1197451638 1.7784420369 32.0119551706
2611 1 23.1197451638 5.3353262174 0.0
2612 1 23.1197451638 5.3353262174 3.5568840383
2613 1 23.1197451638 5.3353262174 7.1137681121
2614 1 23.1197451638 5.3353262174 10.6706524349
2615 1 23.1197451638 5.3353262174 14.2275362242
2616 1 23.1197451638 5.3353262174 17.7844200134
2617 1 23.1197451638 5.3353262174 21.3413048698
2618 1 23.1197451638 5.3353262174 24.898187592
2619 1 23.1197451638 5.3353262174 28.4550724483
2620 1 23.1197451638 5.3353262174 32.0119551706
2621 1 23.1197451638 8.8922100067 0.0
2622 1 23.1197451638 8.8922100067 3.5568840383
2623 1 23.1197451638 8.8922100067 7.1137681121
2624 1 23.1197451638 8.8922100067 10.6706524349
2625 1 23.1197451638 8.8922100067 14.2275362242
2626 1 23.1197451638 8.8922100067 17.7844200134
2627 1 23.1197451638 8.8922100067 21.3413048698
2628 1 23.1197451638 8.8922100067 24.898187592
2629 1 23.1197451638 8.8922100067 28.4550724483
2630 1 23.1197451638 8.8922100067 32.0119551706
2631 1 23.1197451638 12.449093796 0.0
2632 1 23.1197451638 12.449093796 3.5568840383
2633 1 23.1197451638 12.449093796 7.1137681121
2634 1 23.1197451638 12.449093796 10.6706524349
2635 1 23.1197451638 12.449093796 14.2275362242
2636 1 23.1197451638 12.449093796 17.7844200134
2637 1 23.1197451638 12.449093796 21.3413048698
2638 1 23.1197451638 12.449093796 24.898187592
2639 1 23.1197451638 12.449093796 28.4550724483
2640 1 23.1197451638 12.449093796 32.0119551706
2641 1 23.1197451638 16.0059775853 0.0
2642 1 23.1197451638 16.0059775853 3.5568840383
2643 1 23.1197451638 16.0059775853 7.1137681121
2644 1 23.1197451638 16.0059775853 10.6706524349
2645 1 23.1197451638 16.0059775853 14.2275362242
2646 1 23.1197451638 16.0059775853 17.7844200134
2647 1 23.1197451638 16.0059775853 21.3413048698
2648 1 23.1197451638 16.0059775853 24.898187592
2649 1 23.1197451638 16.0059775853 28.4550724483
2650 1 23.1197451638 16.0059775853 32.0119551706
2651 1 23.1197451638 19.5628624416 0.0
2652 1 23.1197451638 19.5628624416 3.5568840383
2653 1 23.1197451638 19.5628624416 7.1137681121
2654 1 23.1197451638 19.5628624416 10.6706524349
2655 1 23.1197451638 19.5628624416 14.2275362242
2656 1 23.1197451638 19.5628624416 17.7844200134
2657 1 23.1197451638 19.5628624416 21.3413048698
2658 1 23.1197451638 19.5628624416 24.898187592
2659 1 23.1197451638 19.5628624416 28.4550724483
2660 1 23.1197451638 19.5628624416 32.0119551706
2661 1 23.1197451638 23.1197451638 0.0
2662 1 23.1197451638 23.1197451638 3.5568840383
2663 1 23.1197451638 23.1197451638 7.1137681121
2664 1 23.1197451638 23.1197451638 10.6706524349
2665 1 23.1197451638 23.1197451638 14.2275362242
2666 1 23.1197451638 23.1197451638 17.7844200134
2667 1 23.1197451638 23.1197451638 21.3413048698
2668 1 23.1197451638 23.1197451638 24.898187592
2669 1 23.1197451638 23.1197451638 28.4550724483
2670 1 23.1197451638 23.1197451638 32.0119551706
2671 1 23.1197451638 26.6766300202 0.0
2672 1 23.1197451638 26.6766300202 3.5568840383
2673 1 23.1197451638 26.6766300202 7.1137681121
2674 1 23.1197451638 26.6766300202 10.6706524349
2675 1 23.1197451638 26.6766300202 14.2275362242
2676 1 23.1197451638 26.6766300202 17.7844200134
2677 1 23.1197451638 26.6766300202 21.3413048698
2678 1 23.1197451638 26.6766300202 24.898187592
2679 1 23.1197451638 26.6766300202 28.4550724483
2680 1 23.1197451638 26.6766300202 32.0119551706
2681 1 23.1197451638 30.2335148765 0.0
2682 1 23.1197451638 30.2335148765 3.5568840383
2683 1 23.1197451638 30.2335148765 7.1137681121
2684 1 23.1197451638 30.2335148765 10.6706524349
2685 1 23.1197451638 30.2335148765 14.2275362242
2686 1 23.1197451638 30.2335148765 17.7844200134
2687 1 23.1197451638 30.2335148765 21.3413048698
2688 1 23.1197451638 30.2335148765 24.898187592
2689 1 23.1197451638 30.2335148765 28.4550724483
2690 1 23.1197451638 30.2335148765 32.0119551706
2691 1 23.1197451638 33.7903975987 0.0
2692 1 23.1197451638 33.7903975987 3.5568840383
2693 1 23.1197451638 33.7903975987 7.1137681121
2694 1 23.1197451638 33.7903975987 10.6706524349
2695 1 23.1197451638 33.7903975987 14.2275362242
2696 1 23.1197451638 33.7903975987 17.7844200134
2697 1 23.1197451638 33.7903975987 21.3413048698
2698 1 23.1197451638 33.7903975987 24.898187592
2699 1 23.1197451638 33.7903975987 28.4550724483
2700 1 23.1197451638 33.7903975987 32.0119551706
2701 1 26.6766300202 1.7784420369 0.0
2702 1 26.6766300202 1.7784420369 3.5568840383
2703 1 26.6766300202 1.7784420369 7.1137681121
2704 1 26.6766300202 1.7784420369 10.6706524349
2705 1 26.6766300202 1.7784420369 14.2275362242
2706 1 26.6766300202 1.7784420369 17.7844200134
2707 1 26.6766300202 1.7784420369 21.3413048698
2708 1 26.6766300202 1.7784420369 24.898187592
2709 1 26.6766300202 1.7784420369 28.4550724483
2710 1 26.6766300202 1.7784420369 32.0119551706
2711 1 26.6766300202 5.3353262174 0.0
2712 1 26.6766300202 5.3353262174 3.5568840383
2713 1 26.6766300202 5.3353262174 7.1137681121
2714 1 26.6766300202 5.3353262174 10.6706524349
2715 1 26.6766300202 5.3353262174 14.2275362242
2716 1 26.6766300202 5.3353262174 17.7844200134
2717 1 26.6766300202 5.3353262174 21.3413048698
2718 1 26.6766300202 5.3353262174 24.898187592
2719 1 26.6766300202 5.3353262174 28.4550724483
2720 1 26.6766300202 5.3353262174 32.0119551706
2721 1 26.6766300202 8.8922100067 0.0
2722 1 26.6766300202 8.8922100067 3.5568840383
2723 1 26.6766300202 8.8922100067 7.1137681121
2724 1 26.6766300202 8.8922100067 10.6706524349
2725 1 26.6766300202 8.8922100067 14.2275362242
2726 1 26.6766300202 8.8922100067 17.7844200134
2727 1 26.6766300202 8.8922100067 21.3413048698
2728 1 26.6766300202 8.8922100067 24.898187592
2729 1 26.6766300202 8.8922100067 28.4550724483
2730 1 26.6766300202 8.8922100067 32.0119551706
2731 1 26.6766300202 12.449093796 0.0
2732 1 26.6766300202 12.449093796 3.5568840383
2733 1 26.6766300202 12.449093796 7.1137681121
2734 1 26.6766300202 12.449093796 10.6706524349
2735 1 26.6766300202 12.449093796 14.2275362242
2736 1 26.6766300202 12.449093796 17.7844200134
2737 1 26.6766300202 12.449093796 21.3413048698
2738 1 26.6766300202 12.449093796 24.898187592
2739 1 26.6766300202 12.449093796 28.4550724483
2740 1 26.6766300202 12.449093796 32.0119551706
2741 1 26.6766300202 16.0059775853 0.0
2742 1 26.6766300202 16.0059775853 3.5568840383
2743 1 26.6766300202 16.0059775853 7.1137681121
2744 1 26.6766300202 16.0059775853 10.6706524349
2745 1 26.6766300202 16.0059775853 14.2275362242
2746 1 26.6766300202 16.0059775853 17.7844200134
2747 1 26.6766300202 16.0059775853 21.3413048698
2748 1 26.6766300202 16.0059775853 24.898187592
2749 1 26.6766300202 16.0059775853 28.4550724483
2750 1 26.6766300202 16.0059775853 32.0119551706
2751 1 26.6766300202 19.5628624416 0.0
2752 1 26.6766300202 19.5628624416 3.5568840383
2753 1 26.6766300202 19.5628624416 7.1137681121
2754 1 26.6766300202 19.5628624416 10.6706524349
2755 1 26.6766300202 19.5628624416 14.2275362242
2756 1 26.6766300202 19.5628624416 17.7844200134
2757 1 26.6766300202 19.5628624416 21.3413048698
2758 1 26.6766300202 19.5628624416 24.898187592
2759 1 26.6766300202 19.5628624416 28.4550724483
2760 1 26.6766300202 19.5628624416 32.0119551706
2761 1 26.6766300202 23.1197451638 0.0
2762 1 26.6766300202 23.1197451638 3.5568840383
2763 1 26.6766300202 23.1197451638 7.1137681121
2764 1 26.6766300202 23.1197451638 10.6706524349
2765 1 26.6766300202 23.1197451638 14.2275362242
2766 1 26.6766300202 23.1197451638 17.7844200134
2767 1 26.6766300202 23.1197451638 21.3413048698
2768 1 26.6766300202 23.1197451638 24.898187592
2769 1 26.6766300202 23.1197451638 28.4550724483
2770 1 26.6766300202 23.1197451638 32.0119551706
2771 1 26.6766300202 26.6766300202 0.0
2772 1 26.6766300202 26.6766300202 3.5568840383
2773 1 26.6766300202 26.6766300202 7.1137681121
2774 1 26.6766300202 26.6766300202 10.6706524349
2775 1 26.6766300202 26.6766300202 14.2275362242
2776 1 26.6766300202 26.6766300202 17.7844200134
2777 1 26.6766300202 26.6766300202 21.3413048698
2778 1 26.6766300202 26.6766300202 24.898187592
2779 1 26.6766300202 26.6766300202 28.4550724483
2780 1 26.6766300202 26.6766300202 32.0119551706
2781 1 26.6766300202 30.2335148765 0.0
2782 1 26.6766300202 30.2335148765 3.5568840383
2783 1 26.6766300202 30.2335148765 7.1137681121
2784 1 26.6766300202 30.2335148765 10.6706524349
2785 1 26.6766300202 30.2335148765 14.2275362242
2786 1 26.6766300202 30.2335148765 17.7844200134
2787 1 26.6766300202 30.2335148765 21.3413048698
2788 1 26.6766300202 30.2335148765 24.898187592
2789 1 26.6766300202 30.2335148765 28.4550724483
2790 1 26.6766300202 30.2335148765 32.0119551706
2791 1 26.6766300202 33.7903975987 0.0
2792 1 26.6766300202 33.7903975987 3.5568840383
2793 1 26.6766300202 33.7903975987 7.1137681121
2794 1 26.6766300202 33.7903975987 10.6706524349
2795 1 26.6766300202 33.7903975987 14.2275362242
2796 1 26.6766300202 33.7903975987 17.7844200134
2797 1 26.6766300202 33.7903975987 21.3413048698
2798 1 26.6766300202 33.7903975987 24.898187592
2799 1 26.6766300202 33.7903975987 28.4550724483
2800 1 26.6766300202 33.7903975987 32.0119551706
2801 1 30.2335148765 1.7784420369 0.0
2802 1 30.2335148765 1.7784420369 3.5568840383
2803 1 30.2335148765 1.7784420369 7.1137681121
2804 1 30.2335148765 1.7784420369 10.6706524349
2805 1 30.2335148765 1.7784420369 14.2275362242
2806 1 30.2335148765 1.7784420369 17.7844200134
2807 1 30.2335148765 1.7784420369 21.3413048698
2808 1 30.2335148765 1.7784420369 24.898187592
2809 1 30.2335148765 1.7784420369 28.4550724483
2810 1 30.2335148765 1.7784420369 32.0119551706
2811 1 30.2335148765 5.3353262174 0.0
2812 1 30.2335148765 5.3353262174 3.5568840383
2813 1 30.2335148765 5.3353262174 7.1137681121
2814 1 30.2335148765 5.3353262174 10.6706524349
2815 1 30.2335148765 5.3353262174 14.2275362242
2816 1 30.2335148765 5.3353262174 17.7844200134
2817 1 30.2335148765 5.3353262174 21.3413048698
2818 1 30.2335148765 5.3353262174 24.898187592
2819 1 30.2335148765 5.3353262174 28.4550724483
2820 1 30.2335148765 5.3353262174 32.0119551706
2821 1 30.2335148765 8.8922100067 0.0
2822 1 30.2335148765 8.8922100067 3.5568840383
2823 1 30.2335148765 8.8922100067 7.1137681121
2824 1 30.2335148765 8.8922100067 10.6706524349
2825 1 30.2335148765 8.8922100067 14.2275362242
2826 1 30.2335148765 8.8922100067 17.7844200134
2827 1 30.2335148765 8.8922100067 21.3413048698
2828 1 30.2335148765 8.8922100067 24.898187592
2829 1 30.2335148765 8.8922100067 28.4550724483
2830 1 30.2335148765 8.8922100067 32.0119551706
2831 1 30.2335148765 12.449093796 0.0
2832 1 30.2335148765 12.449093796 3.5568840383
2833 1 30.2335148765 12.449093796 7.1137681121
2834 1 30.2335148765 12.449093796 10.6706524349
2835 1 30.2335148765 12.449093796 14.2275362242
2836 1 30.2335148765 12.449093796 17.7844200134
2837 1 30.2335148765 12.449093796 21.3413048698
2838 1 30.2335148765 12.449093796 24.898187592
2839 1 30.2335148765 12.449093796 28.4550724483
2840 1 30.2335148765 12.449093796 32.0119551706
2841 1 30.2335148765 16.0059775853 0.0
2842 1 30.2335148765 16.0059775853 3.5568840383
2843 1 30.2335148765 16.0059775853 7.1137681121
2844 1 30.2335148765 16.0059775853 10.6706524349
2845 1 30.2335148765 16.0059775853 14.2275362242
2846 1 30.2335148765 16.0059775853 17.7844200134
2847 1 30.2335148765 16.0059775853 21.3413048698
2848 1 30.2335148765 16.0059775853 24.898187592
2849 1 30.2335148765 16.0059775853 28.4550724483
2850 1 30.2335148765 16.0059775853 32.0119551706
2851 1 30.2335148765 19.5628624416 0.0
2852 1 30.2335148765 19.5628624416 3.5568840383
2853 1 30.2335148765 19.5628624416 7.1137681121
2854 1 30.2335148765 19.5628624416 10.6706524349
2855 1 30.2335148765 19.5628624416 14.2275362242
2856 1 30.2335148765 19.5628624416 17.7844200134
2857 1 30.2335148765 19.5628624416 21.3413048698
2858 1 30.2335148765 19.5628624416 24.898187592
2859 1 30.2335148765 19.5628624416 28.4550724483
2860 1 30.2335148765 19.5628624416 32.0119551706
2861 1 30.2335148765 23.1197451638 0.0
2862 1 30.2335148765 23.1197451638 3.5568840383
2863 1 30.2335148765 23.1197451638 7.1137681121
2864 1 30.2335148765 23.1197451638 10.6706524349
2865 1 30.2335148765 23.1197451638 14.2275362242
2866 1 30.2335148765 23.1197451638 17.7844200134
2867 1 30.2335148765 23.1197451638 21.3413048698
2868 1 30.2335148765 23.1197451638 24.898187592
2869 1 30.2335148765 23.1197451638 28.4550724483
2870 1 30.2335148765 23.1197451638 32.0119551706
2871 1 30.2335148765 26.6766300202 0.0
2872 1 30.2335148765 26.6766300202 3.5568840383
2873 1 30.2335148765 26.6766300202 7.1137681121
2874 1 30.2335148765 26.6766300202 10.6706524349
2875 1 30.2335148765 26.6766300202 14.2275362242
2876 1 30.2335148765 26.6766300202 17.7844200134
2877 1 30.2335148765 26.6766300202 21.3413048698
2878 1 30.2335148765 26.6766300202 24.898187592
2879 1 30.2335148765 26.6766300202 28.4550724483
2880 1 30.2335148765 26.6766300202 32.0119551706
2881 1 30.2335148765 30.2335148765 0.0
2882 1 30.2335148765 30.2335148765 3.5568840383
2883 1 30.2335148765 30.2335148765 7.1137681121
2884 1 30.2335148765 30.2335148765 10.6706524349
2885 1 30.2335148765 30.2335148765 14.2275362242
2886 1 30.2335148765 30.2335148765 17.7844200134
2887 1 30.2335148765 30.2335148765 21.3413048698
2888 1 30.2335148765 30.2335148765 24.898187592
2889 1 30.2335148765 30.2335148765 28.4550724483
2890 1 30.2335148765 30.2335148765 32.0119551706
2891 1 30.2335148765 33.7903975987 0.0
2892 1 30.2335148765 33.7903975987 3.5568840383
2893 1 30.2335148765 33.7903975987 7.1137681121
2894 1 30.2335148765 33.7903975987 10.6706524349
2895 1 30.2335148765 33.7903975987 14.2275362242
2896 1 30.2335148765 33.7903975987 17.7844200134
2897 1 30.2335148765 33.7903975987 21.3413048698
2898 1 30.2335148765 33.7903975987 24.898187592
2899 1 30.2335148765 33.7903975987 28.4550724483
2900 1 30.2335148765 33.7903975987 32.0119551706
2901 1 33.7903975987 1.7784420369 0.0
2902 1 33.7903975987 1.7784420369 3.5568840383
2903 1 33.7903975987 1.7784420369 7.1137681121
2904 1 33.7903975987 1.7784420369 10.6706524349
2905 1 33.7903975987 1.7784420369 14.2275362242
2906 1 33.7903975987 1.7784420369 17.7844200134
2907 1 33.7903975987 1.7784420369 21.3413048698
2908 1 33.7903975987 1.7784420369 24.898187592
2909 1 33.7903975987 1.7784420369 28.4550724483
2910 1 33.7903975987 1.7784420369 32.0119551706
2911 1 33.7903975987 5.3353262174 0.0
2912 1 33.7903975987 5.3353262174 3.5568840383
2913 1 33.7903975987 5.3353262174 7.1137681121
2914 1 33.7903975987 5.3353262174 10.6706524349
2915 1 33.7903975987 5.3353262174 14.2275362242
2916 1 33.7903975987 5.3353262174 17.7844200134
2917 1 33.7903975987 5.3353262174 21.3413048698
2918 1 33.7903975987 5.3353262174 24.898187592
2919 1 33.7903975987 5.3353262174 28.4550724483
2920 1 33.7903975987 5.3353262174 32.0119551706
2921 1 33.7903975987 8.8922100067 0.0
2922 1 33.7903975987 8.8922100067 3.5568840383
2923 1 33.7903975987 8.8922100067 7.1137681121
2924 1 33.7903975987 8.8922100067 10.6706524349
2925 1 33.7903975987 8.8922100067 14.2275362242
2926 1 33.7903975987 8.8922100067 17.7844200134
2927 1 33.7903975987 8.8922100067 21.3413048698
2928 1 33.7903975987 8.8922100067 24.898187592
2929 1 33.7903975987 8.8922100067 28.4550724483
2930 1 33.7903975987 8.8922100067 32.0119551706
2931 1 33.7903975987 12.449093796 0.0
2932 1 33.7903975987 12.449093796 3.5568840383
2933 1 33.7903975987 12.449093796 7.1137681121
2934 1 33.7903975987 12.449093796 10.6706524349
2935 1 33.7903975987 12.449093796 14.2275362242
2936 1 33.7903975987 12.449093796 17.7844200134
2937 1 33.7903975987 12.449093796 21.3413048698
2938 1 33.7903975987 12.449093796 24.898187592
2939 1 33.7903975987 12.449093796 28.4550724483
2940 1 33.7903975987 12.449093796 32.0119551706
2941 1 33.7903975987 16.0059775853 0.0
2942 1 33.7903975987 16.0059775853 3.5568840383
2943 1 33.7903975987 16.0059775853 7.1137681121
2944 1 33.7903975987 16.0059775853 10.6706524349
2945 1 33.7903975987 16.0059775853 14.2275362242
2946 1 33.7903975987 16.0059775853 17.7844200134
2947 1 33.7903975987 16.0059775853 21.3413048698
2948 1 33.7903975987 16.0059775853 24.898187592
2949 1 33.7903975987 16.0059775853 28.4550724483
2950 1 33.7903975987 16.0059775853 32.0119551706
2951 1 33.7903975987 19.5628624416 0.0
2952 1 33.7903975987 19.5628624416 3.5568840383
2953 1 33.7903975987 19.5628624416 7.1137681121
2954 1 33.7903975987 19.5628624416 10.6706524349
2955 1 33.7903975987 19.5628624416 14.2275362242
2956 1 33.7903975987 19.5628624416 17.7844200134
2957 1 33.7903975987 19.5628624416 21.3413048698
2958 1 33.7903975987 19.5628624416 24.898187592
2959 1 33.7903975987 19.5628624416 28.4550724483
2960 1 33.7903975987 19.5628624416 32.0119551706
2961 1 33.7903975987 23.1197451638 0.0
2962 1 33.7903975987 23.1197451638 3.5568840383
2963 1 33.7903975987 23.1197451638 7.1137681121
2964 1 33.7903975987 23.1197451638 10.6706524349
2965 1 33.7903975987 23.1197451638 14.2275362242
2966 1 33.7903975987 23.1197451638 17.7844200134
2967 1 33.7903975987 23.1197451638 21.3413048698
2968 1 33.7903975987 23.1197451638 24.898187592
2969 1 33.7903975987 23.1197451638 28.4550724483
2970 1 33.7903975987 23.1197451638 32.0119551706
2971 1 33.7903975987 26.6766300202 0.0
2972 1 33.7903975987 26.6766300202 3.5568840383
2973 1 33.7903975987 26.6766300202 7.1137681121
2974 1 33.7903975987 26.6766300202 10.6706524349
2975 1 33.7903975987 26.6766300202 14.2275362242
2976 1 33.7903975987 26.6766300202 17.7844200134
2977 1 33.7903975987 26.6766300202 21.3413048698
2978 1 33.7903975987 26.6766300202 24.898187592
2979 1 33.7903975987 26.6766300202 28.4550724483
2980 1 33.7903975987 26.6766300202 32.0119551706
2981 1 33.7903975987 30.2335148765 0.0
2982 1 33.7903975987 30.2335148765 3.5568840383
2983 1 33.7903975987 30.2335148765 7.1137681121
2984 1 33.7903975987 30.2335148765 10.6706524349
2985 1 33.7903975987 30.2335148765 14.2275362242
2986 1 33.7903975987 30.2335148765 17.7844200134
2987 1 33.7903975987 30.2335148765 21.3413048698
2988 1 33.7903975987 30.2335148765 24.898187592
2989 1 33.7903975987 30.2335148765 28.4550724483
2990 1 33.7903975987 30.2335148765 32.0119551706
2991 1 33.7903975987 33.7903975987 0.0
2992 1 33.7903975987 33.7903975987 3.5568840383
2993 1 33.7903975987 33.7903975987 7.1137681121
2994 1 33.7903975987 33.7903975987 10.6706524349
2995 1 33.7903975987 33.7903975987 14.2275362242
2996 1 33.7903975987 33.7903975987 17.7844200134
2997 1 33.7903975987 33.7903975987 21.3413048698
2998 1 33.7903975987 33.7903975987 24.898187592
2999 1 33.7903975987 33.7903975987 28.4550724483
3000 1 33.7903975987 33.7903975987 32.0119551706
3001 1 1.7784420369 0.0 1.7784420369
3002 1 1.7784420369 0.0 5.3353262174
3003 1 1.7784420369 0.0 8.8922100067
3004 1 1.7784420369 0.0 12.449093796
3005 1 1.7784420369 0.0 16.0059775853
3006 1 1.7784420369 0.0 19.5628624416
3007 1 1.7784420369 0.0 23.1197451638
3008 1 1.7784420369 0.0 26.6766300202
3009 1 1.7784420369 0.0 30.2335148765
3010 1 1.7784420369 0.0 33.7903975987
3011 1 1.7784420369 3.5568840383 1.7784420369
3012 1 1.7784420369 3.5568840383 5.3353262174
3013 1 1.7784420369 3.5568840383 8.8922100067
3014 1 1.7784420369 3.5568840383 12.449093796
3015 1 1.7784420369 3.5568840383 16.0059775853
3016 1 1.7784420369 3.5568840383 19.5628624416
3017 1 1.7784420369 3.5568840383 23.1197451638
3018 1 1.7784420369 3.5568840383 26.6766300202
3019 1 1.7784420369 3.5568840383 30.2335148765
3020 1 1.7784420369 3.5568840383 33.7903975987
3021 1 1.7784420369 7.1137681121 1.7784420369
3022 1 1.7784420369 7.1137681121 5.3353262174
3023 1 1.7784420369 7.1137681121 8.8922100067
3024 1 1.7784420369 7.1137681121 12.449093796
3025 1 1.7784420369 7.1137681121 16.0059775853
3026 1 1.7784420369 7.1137681121 19.5628624416
3027 1 1.7784420369 7.1137681121 23.1197451638
3028 1 1.7784420369 7.1137681121 26.6766300202
3029 1 1.7784420369 7.1137681121 30.2335148765
3030 1 1.7784420369 7.1137681121 33.7903975987
3031 1 1.7784420369 10.6706524349 1.7784420369
3032 1 1.7784420369 10.6706524349 5.3353262174
3033 1 1.7784420369 10.6706524349 8.8922100067
3034 1 1.7784420369 10.6706524349 12.449093796
3035 1 1.7784420369 10.6706524349 16.0059775853
3036 1 1.7784420369 10.6706524349 19.5628624416
3037 1 1.7784420369 10.6706524349 23.1197451638
3038 1 1.7784420369 10.6706524349 26.6766300202
3039 1 1.7784420369 10.6706524349 30.2335148765
3040 1 1.7784420369 10.6706524349 33.7903975987
3041 1 1.7784420369 14.2275362242 1.7784420369
3042 1 1.7784420369 14.2275362242 5.3353262174
3043 1 1.7784420369 14.2275362242 8.8922100067
3044 1 1.7784420369 14.2275362242 12.449093796
3045 1 1.7784420369 14.2275362242 16.0059775853
3046 1 1.7784420369 14.2275362242 19.5628624416
3047 1 1.7784420369 14.2275362242 23.1197451638
3048 1 1.7784420369 14.2275362242 26.6766300202
3049 1 1.7784420369 14.2275362242 30.2335148765
3050 1 1.7784420369 14.2275362242 33.7903975987
3051 1 1.7784420369 17.7844200134 1.7784420369
3052 1 1.7784420369 17.7844200134 5.3353262174
3053 1 1.7784420369 17.7844200134 8.8922100067
3054 1 1.7784420369 17.7844200134 12.449093796
3055 1 1.7784420369 17.7844200134 16.0059775853
3056 1 1.7784420369 17.7844200134 19.5628624416
3057 1 1.7784420369 17.7844200134 23.1197451638
3058 1 1.7784420369 17.7844200134 26.6766300202
3059 1 1.7784420369 17.7844200134 30.2335148765
3060 1 1.7784420369 17.7844200134 33.7903975987
3061 1 1.7784420369 21.3413048698 1.7784420369
3062 1 1.7784420369 21.3413048698 5.3353262174
3063 1 1.7784420369 21.3413048698 8.8922100067
3064 1 1.7784420369 21.3413048698 12.449093796
3065 1 1.7784420369 21.3413048698 16.0059775853
3066 1 1.7784420369 21.3413048698 19.5628624416
3067 1 1.7784420369 21.3413048698 23.1197451638
3068 1 1.7784420369 21.3413048698 26.6766300202
3069 1 1.7784420369 21.3413048698 30.2335148765
3070 1 1.7784420369 21.3413048698 33.7903975987
3071 1 1.7784420369 24.898187592 1.7784420369
3072 1 1.7784420369 24.898187592 5.3353262174
3073 1 1.7784420369 24.898187592 8.8922100067
3074 1 1.7784420369 24.898187592 12.449093796
3075 1 1.7784420369 24.898187592 16.0059775853
3076 1 1.7784420369 24.898187592 19.5628624416
3077 1 1.7784420369 24.898187592 23.1197451638
3078 1 1.7784420369 24.898187592 26.6766300202
3079 1 1.7784420369 24.898187592 30.2335148765
3080 1 1.7784420369 24.898187592 33.7903975987
3081 1 1.7784420369 28.4550724483 1.7784420369
3082 1 1.7784420369 28.4550724483 5.3353262174
3083 1 1.7784420369 28.4550724483 8.8922100067
3084 1 1.7784420369 28.4550724483 12.449093796
3085 1 1.7784420369 28.4550724483 16.0059775853
3086 1 1.7784420369 28.4550724483 19.5628624416
3087 1 1.7784420369 28.4550724483 23.1197451638
3088 1 1.7784420369 28.4550724483 26.6766300202
3089 1 1.7784420369 28.4550724483 30.2335148765
3090 1 1.7784420369 28.4550724483 33.7903975987
3091 1 1.7784420369 32.0119551706 1.7784420369
3092 1 1.7784420369 32.0119551706 5.3353262174
3093 1 1.7784420369 32.0119551706 8.8922100067
3094 1 1.7784420369 32.0119551706 12.449093796
3095 1 1.7784420369 32.0119551706 16.0059775853
3096 1 1.7784420369 32.0119551706 19.5628624416
3097 1 1.7784420369 32.0119551706 23.1197451638
3098 1 1.7784420369 32.0119551706 26.6766300202
3099 1 1.7784420369 32.0119551706 30.2335148765
3100 1 1.7784420369 32.0119551706 33.7903975987
3101 1 5.3353262174 0.0 1.7784420369
3102 1 5.3353262174 0.0 5.3353262174
3103 1 5.3353262174 0.0 8.8922100067
3104 1 5.3353262174 0.0 12.449093796
3105 1 5.3353262174 0.0 16.0059775853
3106 1 5.3353262174 0.0 19.5628624416
3107 1 5.3353262174 0.0 23.1197451638
3108 1 5.3353262174 0.0 26.6766300202
3109 1 5.3353262174 0.0 30.2335148765
3110 1 5.3353262174 0.0 33.7903975987
3111 1 5.3353262174 3.5568840383 1.7784420369
3112 1 5.3353262174 3.5568840383 5.3353262174
3113 1 5.3353262174 3.5568840383 8.8922100067
3114 1 5.3353262174 3.5568840383 12.449093796
3115 1 5.3353262174 3.5568840383 16.0059775853
3116 1 5.3353262174 3.5568840383 19.5628624416
3117 1 5.3353262174 3.5568840383 23.1197451638
3118 1 5.3353262174 3.5568840383 26.6766300202
3119 1 5.3353262174 3.5568840383 30.2335148765
3120 1 5.3353262174 3.5568840383 33.7903975987
3121 1 5.3353262174 7.1137681121 1.7784420369
3122 1 5.3353262174 7.1137681121 5.3353262174
3123 1 5.3353262174 7.1137681121 8.8922100067
3124 1 5.3353262174 7.1137681121 12.449093796
3125 1 5.3353262174 7.1137681121 16.0059775853
3126 1 5.3353262174 7.1137681121 19.5628624416
3127 1 5.3353262174 7.1137681121 23.1197451638
3128 1 5.3353262174 7.1137681121 26.6766300202
3129 1 5.3353262174 7.1137681121 30.2335148765
3130 1 5.3353262174 7.1137681121 33.7903975987
3131 1 5.3353262174 10.6706524349 1.7784420369
3132 1 5.3353262174 10.6706524349 5.3353262174
3133 1 5.3353262174 10.6706524349 8.8922100067
3134 1 5.3353262174 10.6706524349 12.449093796
3135 1 5.3353262174 10.6706524349 16.0059775853
3136 1 5.3353262174 10.6706524349 19.5628624416
3137 1 5.3353262174 10.6706524349 23.1197451638
3138 1 5.3353262174 10.6706524349 26.6766300202
3139 1 5.3353262174 10.6706524349 30.2335148765
3140 1 5.3353262174 10.6706524349 33.7903975987
3141 1 5.3353262174 14.2275362242 1.7784420369
3142 1 5.3353262174 14.2275362242 5.3353262174
3143 1 5.3353262174 14.2275362242 8.8922100067
3144 1 5.3353262174 14.2275362242 12.449093796
3145 1 5.3353262174 14.2275362242 16.0059775853
3146 1 5.3353262174 14.2275362242 19.5628624416
3147 1 5.3353262174 14.2275362242 23.1197451638
3148 1 5.3353262174 14.2275362242 26.6766300202
3149 1 5.3353262174 14.2275362242 30.2335148765
3150 1 5.3353262174 14.2275362242 33.7903975987
3151 1 5.3353262174 17.7844200134 1.7784420369
3152 1 5.3353262174 17.7844200134 5.3353262174
3153 1 5.3353262174 17.7844200134 8.8922100067
3154 1 5.3353262174 17.7844200134 12.449093796
3155 1 5.3353262174 17.7844200134 16.0059775853
3156 1 5.3353262174 17.7844200134 19.5628624416
3157 1 5.3353262174 17.7844200134 23.1197451638
3158 1 5.3353262174 17.7844200134 26.6766300202
3159 1 5.3353262174 17.7844200134 30.2335148765
3160 1 5.3353262174 17.7844200134 33.7903975987
3161 1 5.3353262174 21.3413048698 1.7784420369
3162 1 5.3353262174 21.3413048698 5.3353262174
3163 1 5.3353262174 21.3413048698 8.8922100067
3164 1 5.3353262174 21.3413048698 12.449093796
3165 1 5.3353262174 21.3413048698 16.0059775853
3166 1 5.3353262174 21.3413048698 19.5628624416
3167 1 5.3353262174 21.3413048698 23.1197451638
3168 1 5.3353262174 21.3413048698 26.6766300202
3169 1 5.3353262174 21.3413048698 30.2335148765
3170 1 5.3353262174 21.3413048698 33.7903975987
3171 1 5.3353262174 24.898187592 1.7784420369
3172 1 5.3353262174 24.898187592 5.3353262174
3173 1 5.3353262174 24.898187592 8.8922100067
3174 1 5.3353262174 24.898187592 12.449093796
3175 1 5.3353262174 24.898187592 16.0059775853
3176 1 5.3353262174 24.898187592 19.5628624416
3177 1 5.3353262174 24.898187592 23.1197451638
3178 1 5.3353262174 24.898187592 26.6766300202
3179 1 5.3353262174 24.898187592 30.2335148765
3180 1 5.3353262174 24.898187592 33.7903975987
3181 1 5.3353262174 28.4550724483 1.7784420369
3182 1 5.3353262174 28.4550724483 5.3353262174
3183 1 5.3353262174 28.4550724483 8.8922100067
3184 1 5.3353262174 28.4550724483 12.449093796
3185 1 5.3353262174 28.4550724483 16.0059775853
3186 1 5.3353262174 28.4550724483 19.5628624416
3187 1 5.3353262174 28.4550724483 23.1197451638
3188 1 5.3353262174 28.4550724483 26.6766300202
3189 1 5.3353262174 28.4550724483 30.2335148765
3190 1 5.3353262174 28.4550724483 33.7903975987
3191 1 5.3353262174 32.0119551706 1.7784420369
3192 1 5.3353262174 32.0119551706 5.3353262174
3193 1 5.3353262174 32.0119551706 8.8922100067
3194 1 5.3353262174 32.0119551706 12.449093796
3195 1 5.3353262174 32.0119551706 16.0059775853
3196 1 5.3353262174 32.0119551706 19.5628624416
3197 1 5.3353262174 32.0119551706 23.1197451638
3198 1 5.3353262174 32.0119551706 26.6766300202
3199 1 5.3353262174 32.0119551706 30.2335148765
3200 1 5.3353262174 32.0119551706 33.7903975987
3201 1 8.8922100067 0.0 1.7784420369
3202 1 8.8922100067 0.0 5.3353262174
3203 1 8.8922100067 0.0 8.8922100067
3204 1 8.8922100067 0.0 12.449093796
3205 1 8.8922100067 0.0 16.0059775853
3206 1 8.8922100067 0.0 19.5628624416
3207 1 8.8922100067 0.0 23.1197451638
3208 1 8.8922100067 0.0 26.6766300202
3209 1 8.8922100067 0.0 30.2335148765
3210 1 8.8922100067 0.0 33.7903975987
3211 1 8.8922100067 3.5568840383 1.7784420369
3212 1 8.8922100067 3.5568840383 5.3353262174
3213 1 8.8922100067 3.5568840383 8.8922100067
3214 1 8.8922100067 3.5568840383 12.449093796
3215 1 8.8922100067 3.5568840383 16.0059775853
3216 1 8.8922100067 3.5568840383 19.5628624416
3217 1 8.8922100067 3.5568840383 23.1197451638
3218 1 8.8922100067 3.5568840383 26.6766300202
3219 1 8.8922100067 3.5568840383 30.2335148765
3220 1 8.8922100067 3.5568840383 33.7903975987
3221 1 8.8922100067 7.1137681121 1.7784420369
3222 1 8.8922100067 7.1137681121 5.3353262174
3223 1 8.8922100067 7.1137681121 8.8922100067
3224 1 8.8922100067 7.1137681121 12.449093796
3225 1 8.8922100067 7.1137681121 16.0059775853
3226 1 8.8922100067 7.1137681121 19.5628624416
3227 1 8.8922100067 7.1137681121 23.1197451638
3228 1 8.8922100067 7.1137681121 26.6766300202
3229 1 8.8922100067 7.1137681121 30.2335148765
3230 1 8.8922100067 7.1137681121 33.7903975987
3231 1 8.8922100067 10.6706524349 1.7784420369
3232 1 8.8922100067 10.6706524349 5.3353262174
3233 1 8.8922100067 10.6706524349 8.8922100067
3234 1 8.8922100067 10.6706524349 12.449093796
3235 1 8.8922100067 10.6706524349 16.0059775853
3236 1 8.8922100067 10.6706524349 19.5628624416
3237 1 8.8922100067 10.6706524349 23.1197451638
3238 1 8.8922100067 10.6706524349 26.6766300202
3239 1 8.8922100067 10.6706524349 30.2335148765
3240 1 8.8922100067 10.6706524349 33.7903975987
3241 1 8.8922100067 14.2275362242 1.7784420369
3242 1 8.8922100067 14.2275362242 5.3353262174
3243 1 8.8922100067 14.2275362242 8.8922100067
3244 1 8.8922100067 14.2275362242 12.449093796
3245 1 8.8922100067 14.2275362242 16.0059775853
3246 1 8.8922100067 14.2275362242 19.5628624416
3247 1 8.8922100067 14.2275362242 23.1197451638
3248 1 8.8922100067 14.2275362242 26.6766300202
3249 1 8.8922100067 14.2275362242 30.2335148765
3250 1 8.8922100067 14.2275362242 33.7903975987
3251 1 8.8922100067 17.7844200134 1.7784420369
3252 1 8.8922100067 17.7844200134 5.3353262174
3253 1 8.8922100067 17.7844200134 8.8922100067
3254 1 8.8922100067 17.7844200134 12.449093796
3255 1 8.8922100067 17.7844200134 16.0059775853
3256 1 8.8922100067 17.7844200134 19.5628624416
3257 1 8.8922100067 17.7844200134 23.1197451638
3258 1 8.8922100067 17.7844200134 26.6766300202
3259 1 8.8922100067 17.7844200134 30.2335148765
3260 1 8.8922100067 17.7844200134 33.7903975987
3261 1 8.8922100067 21.3413048698 1.7784420369
3262 1 8.8922100067 21.3413048698 5.3353262174
3263 1 8.8922100067 21.3413048698 8.8922100067
3264 1 8.8922100067 21.3413048698 12.449093796
3265 1 8.8922100067 21.3413048698 16.0059775853
3266 1 8.8922100067 21.3413048698 19.5628624416
3267 1 8.8922100067 21.3413048698 23.1197451638
3268 1 8.8922100067 21.3413048698 26.6766300202
3269 1 8.8922100067 21.3413048698 30.2335148765
3270 1 8.8922100067 21.3413048698 33.7903975987
3271 1 8.8922100067 24.898187592 1.7784420369
3272 1 8.8922100067 24.898187592 5.3353262174
3273 1 8.8922100067 24.898187592 8.8922100067
3274 1 8.8922100067 24.898187592 12.449093796
3275 1 8.8922100067 24.898187592 16.0059775853
3276 1 8.8922100067 24.898187592 19.5628624416
3277 1 8.8922100067 24.898187592 23.1197451638
3278 1 8.8922100067 24.898187592 26.6766300202
3279 1 8.8922100067 24.898187592 30.2335148765
3280 1 8.8922100067 24.898187592 33.7903975987
3281 1 8.8922100067 28.4550724483 1.7784420369
3282 1 8.8922100067 28.4550724483 5.3353262174
3283 1 8.8922100067 28.4550724483 8.8922100067
3284 1 8.8922100067 28.4550724483 12.449093796
3285 1 8.8922100067 28.4550724483 16.0059775853
3286 1 8.8922100067 28.4550724483 19.5628624416
3287 1 8.8922100067 28.4550724483 23.1197451638
3288 1 8.8922100067 28.4550724483 26.6766300202
3289 1 8.8922100067 28.4550724483 30.2335148765
3290 1 8.8922100067 28.4550724483 33.7903975987
3291 1 8.8922100067 32.0119551706 1.7784420369
3292 1 8.8922100067 32.0119551706 5.3353262174
3293 1 8.8922100067 32.0119551706 8.8922100067
3294 1 8.8922100067 32.0119551706 12.449093796
3295 1 8.8922100067 32.0119551706 16.0059775853
3296 1 8.8922100067 32.0119551706 19.5628624416
3297 1 8.8922100067 32.0119551706 23.1197451638
3298 1 8.8922100067 32.0119551706 26.6766300202
3299 1 8.8922100067 32.0119551706 30.2335148765
3300 1 8.8922100067 32.0119551706 33.7903975987
3301 1 12.449093796 0.0 1.7784420369
3302 1 12.449093796 0.0 5.3353262174
3303 1 12.449093796 0.0 8.8922100067
3304 1 12.449093796 0.0 12.449093796
3305 1 12.449093796 0.0 16.0059775853
3306 1 12.449093796 0.0 19.5628624416
3307 1 12.449093796 0.0 23.1197451638
3308 1 12.449093796 0.0 26.6766300202
3309 1 12.449093796 0.0 30.2335148765
3310 1 12.449093796 0.0 33.7903975987
3311 1 12.449093796 3.5568840383 1.7784420369
3312 1 12.449093796 3.5568840383 5.3353262174
3313 1 12.449093796 3.5568840383 8.8922100067
3314 1 12.449093796 3.5568840383 12.449093796
3315 1 12.449093796 3.5568840383 16.0059775853
3316 1 12.449093796 3.5568840383 19.5628624416
3317 1 12.449093796 3.5568840383 23.1197451638
3318 1 12.449093796 3.5568840383 26.6766300202
3319 1 12.449093796 3.5568840383 30.2335148765
3320 1 12.449093796 3.5568840383 33.7903975987
3321 1 12.449093796 7.1137681121 1.7784420369
3322 1 12.449093796 7.1137681121 5.3353262174
3323 1 12.449093796 7.1137681121 8.8922100067
3324 1 12.449093796 7.1137681121 12.449093796
3325 1 12.449093796 7.1137681121 16.0059775853
3326 1 12.449093796 7.1137681121 19.5628624416
3327 1 12.449093796 7.1137681121 23.1197451638
3328 1 12.449093796 7.1137681121 26.6766300202
3329 1 12.449093796 7.1137681121 30.2335148765
3330 1 12.449093796 7.1137681121 33.7903975987
3331 1 12.449093796 10.6706524349 1.7784420369
3332 1 12.449093796 10.6706524349 5.3353262174
3333 1 12.449093796 10.6706524349 8.8922100067
3334 1 12.449093796 10.6706524349 12.449093796
3335 1 12.449093796 10.6706524349 16.0059775853
3336 1 12.449093796 10.6706524349 19.5628624416
3337 1 12.449093796 10.6706524349 23.1197451638
3338 1 12.449093796 10.6706524349 26.6766300202
3339 1 12.449093796 10.6706524349 30.2335148765
3340 1 12.449093796 10.6706524349 33.7903975987
3341 1 12.449093796 14.2275362242 1.7784420369
3342 1 12.449093796 14.2275362242 5.3353262174
3343 1 12.449093796 14.2275362242 8.8922100067
3344 1 12.449093796 14.2275362242 12.449093796
3345 1 12.449093796 14.2275362242 16.0059775853
3346 1 12.449093796 14.2275362242 19.5628624416
3347 1 12.449093796 14.2275362242 23.1197451638
3348 1 12.449093796 14.2275362242 26.6766300202
3349 1 12.449093796 14.2275362242 30.2335148765
3350 1 12.449093796 14.2275362242 33.7903975987
3351 1 12.449093796 17.7844200134 1.7784420369
3352 1 12.449093796 17.7844200134 5.3353262174
3353 1 12.449093796 17.7844200134 8.8922100067
3354 1 12.449093796 17.7844200134 12.449093796
3355 1 12.449093796 17.7844200134 16.0059775853
3356 1 12.449093796 17.7844200134 19.5628624416
3357 1 12.449093796 17.7844200134 23.1197451638
3358 1 12.449093796 17.7844200134 26.6766300202
3359 1 12.449093796 17.7844200134 30.2335148765
3360 1 12.449093796 17.7844200134 33.7903975987
3361 1 12.449093796 21.3413048698 1.7784420369
3362 1 12.449093796 21.3413048698 5.3353262174
3363 1 12.449093796 21.3413048698 8.8922100067
3364 1 12.449093796 21.3413048698 12.449093796
3365 1 12.449093796 21.3413048698 16.0059775853
3366 1 12.449093796 21.3413048698 19.5628624416
3367 1 12.449093796 21.3413048698 23.1197451638
3368 1 12.449093796 21.3413048698 26.6766300202
3369 1 12.449093796 21.3413048698 30.2335148765
3370 1 12.449093796 21.3413048698 33.7903975987
3371 1 12.449093796 24.898187592 1.7784420369
3372 1 12.449093796 24.898187592 5.3353262174
3373 1 12.449093796 24.898187592 8.8922100067
3374 1 12.449093796 24.898187592 12.449093796
3375 1 12.449093796 24.898187592 16.0059775853
3376 1 12.449093796 24.898187592 19.5628624416
3377 1 12.449093796 24.898187592 23.1197451638
3378 1 12.449093796 24.898187592 26.6766300202
3379 1 12.449093796 24.898187592 30.2335148765
3380 1 12.449093796 24.898187592 33.7903975987
3381 1 12.449093796 28.4550724483 1.7784420369
3382 1 12.449093796 28.4550724483 5.3353262174
3383 1 12.449093796 28.4550724483 8.8922100067
3384 1 12.449093796 28.4550724483 12.449093796
3385 1 12.449093796 28.4550724483 16.0059775853
3386 1 12.449093796 28.4550724483 19.5628624416
3387 1 12.449093796 28.4550724483 23.1197451638
3388 1 12.449093796 28.4550724483 26.6766300202
3389 1 12.449093796 28.4550724483 30.2335148765
3390 1 12.449093796 28.4550724483 33.7903975987
3391 1 12.449093796 32.0119551706 1.7784420369
3392 1 12.449093796 32.0119551706 5.3353262174
3393 1 12.449093796 32.0119551706 8.8922100067
3394 1 12.449093796 32.0119551706 12.449093796
3395 1 12.449093796 32.0119551706 16.0059775853
3396 1 12.449093796 32.0119551706 19.5628624416
3397 1 12.449093796 32.0119551706 23.1197451638
3398 1 12.449093796 32.0119551706 26.6766300202
3399 1 12.449093796 32.0119551706 30.2335148765
3400 1 12.449093796 32.0119551706 33.7903975987
3401 1 16.0059775853 0.0 1.7784420369
3402 1 16.0059775853 0.0 5.3353262174
3403 1 16.0059775853 0.0 8.8922100067
3404 1 16.0059775853 0.0 12.449093796
3405 1 16.0059775853 0.0 16.0059775853
3406 1 16.0059775853 0.0 19.5628624416
3407 1 16.0059775853 0.0 23.1197451638
3408 1 16.0059775853 0.0 26.6766300202
3409 1 16.0059775853 0.0 30.2335148765
3410 1 16.0059775853 0.0 33.7903975987
3411 1 16.0059775853 3.5568840383 1.7784420369
3412 1 16.0059775853 3.5568840383 5.3353262174
3413 1 16.0059775853 3.5568840383 8.8922100067
3414 1 16.0059775853 3.5568840383 12.449093796
3415 1 16.0059775853 3.5568840383 16.0059775853
3416 1 16.0059775853 3.5568840383 19.5628624416
3417 1 16.0059775853 3.5568840383 23.1197451638
3418 1 16.0059775853 3.5568840383 26.6766300202
3419 1 16.0059775853 3.5568840383 30.2335148765
3420 1 16.0059775853 3.5568840383 33.7903975987
3421 1 16.0059775853 7.1137681121 1.7784420369
3422 1 16.0059775853 7.1137681121 5.3353262174
3423 1 16.0059775853 7.1137681121 8.8922100067
3424 1 16.0059775853 7.1137681121 12.449093796
3425 1 16.0059775853 7.1137681121 16.0059775853
3426 1 16.0059775853 7.1137681121 19.5628624416
3427 1 16.0059775853 7.1137681121 23.1197451638
3428 1 16.0059775853 7.1137681121 26.6766300202
3429 1 16.0059775853 7.1137681121 30.2335148765
3430 1 16.0059775853 7.1137681121 33.7903975987
3431 1 16.0059775853 10.6706524349 1.7784420369
3432 1 16.0059775853 10.6706524349 5.3353262174
3433 1 16.0059775853 10.6706524349 8.8922100067
3434 1 16.0059775853 10.6706524349 12.449093796
3435 1 16.0059775853 10.6706524349 16.0059775853
3436 1 16.0059775853 10.6706524349 19.5628624416
3437 1 16.0059775853 10.6706524349 23.1197451638
3438 1 16.0059775853 10.6706524349 26.6766300202
3439 1 16.0059775853 10.6706524349 30.2335148765
3440 1 16.0059775853 10.6706524349 33.7903975987
3441 1 16.0059775853 14.2275362242 1.7784420369
3442 1 16.0059775853 14.2275362242 5.3353262174
3443 1 16.0059775853 14.2275362242 8.8922100067
3444 1 16.0059775853 14.2275362242 12.449093796
3445 1 16.0059775853 14.2275362242 16.0059775853
3446 1 16.0059775853 14.2275362242 19.5628624416
3447 1 16.0059775853 14.2275362242 23.1197451638
3448 1 16.0059775853 14.2275362242 26.6766300202
3449 1 16.0059775853 14.2275362242 30.2335148765
3450 1 16.0059775853 14.2275362242 33.7903975987
3451 1 16.0059775853 17.7844200134 1.7784420369
3452 1 16.0059775853 17.7844200134 5.3353262174
3453 1 16.0059775853 17.7844200134 8.8922100067
3454 1 16.0059775853 17.7844200134 12.449093796
3455 1 16.0059775853 17.7844200134 16.0059775853
3456 1 16.0059775853 17.7844200134 19.5628624416
3457 1 16.0059775853 17.7844200134 23.1197451638
3458 1 16.0059775853 17.7844200134 26.6766300202
3459 1 16.0059775853 17.7844200134 30.2335148765
3460 1 16.0059775853 17.7844200134 33.7903975987
3461 1 16.0059775853 21.3413048698 1.7784420369
3462 1 16.0059775853 21.3413048698 5.3353262174
3463 1 16.0059775853 21.3413048698 8.8922100067
3464 1 16.0059775853 21.3413048698 12.449093796
3465 1 16.0059775853 21.3413048698 16.0059775853
3466 1 16.0059775853 21.3413048698 19.5628624416
3467 1 16.0059775853 21.3413048698 23.1197451638
3468 1 16.0059775853 21.3413048698 26.6766300202
3469 1 16.0059775853 21.3413048698 30.2335148765
3470 1 16.0059775853 21.3413048698 33.7903975987
3471 1 16.0059775853 24.898187592 1.7784420369
3472 1 16.0059775853 24.898187592 5.3353262174
3473 1 16.0059775853 24.898187592 8.8922100067
3474 1 16.0059775853 24.898187592 12.449093796
3475 1 16.0059775853 24.898187592 16.0059775853
3476 1 16.0059775853 24.898187592 19.5628624416
3477 1 16.0059775853 24.898187592 23.1197451638
3478 1 16.0059775853 24.898187592 26.6766300202
3479 1 16.0059775853 24.898187592 30.2335148765
3480 1 16.0059775853 24.898187592 33.7903975987
3481 1 16.0059775853 28.4550724483 1.7784420369
3482 1 16.0059775853 28.4550724483 5.3353262174
3483 1 16.0059775853 28.4550724483 8.8922100067
3484 1 16.0059775853 28.4550724483 12.449093796
3485 1 16.0059775853 28.4550724483 16.0059775853
3486 1 16.0059775853 28.4550724483 19.5628624416
3487 1 16.0059775853 28.4550724483 23.1197451638
3488 1 16.0059775853 28.4550724483 26.6766300202
3489 1 16.0059775853 28.4550724483 30.2335148765
3490 1 16.0059775853 28.4550724483 33.7903975987
3491 1 16.0059775853 32.0119551706 1.7784420369
3492 1 16.0059775853 32.0119551706 5.3353262174
3493 1 16.0059775853 32.0119551706 8.8922100067
3494 1 16.0059775853 32.0119551706 12.449093796
3495 1 16.0059775853 32.0119551706 16.0059775853
3496 1 16.0059775853 32.0119551706 19.5628624416
3497 1 16.0059775853 32.0119551706 23.1197451638
3498 1 16.0059775853 32.0119551706 26.6766300202
3499 1 16.0059775853 32.0119551706 30.2335148765
3500 1 16.0059775853 32.0119551706 33.7903975987
3501 1 19.5628624416 0.0 1.7784420369
3502 1 19.5628624416 0.0 5.3353262174
3503 1 19.5628624416 0.0 8.8922100067
3504 1 19.5628624416 0.0 12.449093796
3505 1 19.5628624416 0.0 16.0059775853
3506 1 19.5628624416 0.0 19.5628624416
3507 1 19.5628624416 0.0 23.1197451638
3508 1 19.5628624416 0.0 26.6766300202
3509 1 19.5628624416 0.0 30.2335148765
3510 1 19.5628624416 0.0 33.7903975987
3511 1 19.5628624416 3.5568840383 1.7784420369
3512 1 19.5628624416 3.5568840383 5.3353262174
3513 1 19.5628624416 3.5568840383 8.8922100067
3514 1 19.5628624416 3.5568840383 12.449093796
3515 1 19.5628624416 3.5568840383 16.0059775853
3516 1 19.5628624416 3.5568840383 19.5628624416
3517 1 19.5628624416 3.5568840383 23.1197451638
3518 1 19.5628624416 3.5568840383 26.6766300202
3519 1 19.5628624416 3.5568840383 30.2335148765
3520 1 19.5628624416 3.5568840383 33.7903975987
3521 1 19.5628624416 7.1137681121 1.7784420369
3522 1 19.5628624416 7.1137681121 5.3353262174
3523 1 19.5628624416 7.1137681121 8.8922100067
3524 1 19.5628624416 7.1137681121 12.449093796
3525 1 19.5628624416 7.1137681121 16.0059775853
3526 1 19.5628624416 7.1137681121 19.5628624416
3527 1 19.5628624416 7.1137681121 23.1197451638
3528 1 19.5628624416 7.1137681121 26.6766300202
3529 1 19.5628624416 7.1137681121 30.2335148765
3530 1 19.5628624416 7.1137681121 33.7903975987
3531 1 19.5628624416 10.6706524349 1.7784420369
3532 1 19.5628624416 10.6706524349 5.3353262174
3533 1 19.5628624416 10.6706524349 8.8922100067
3534 1 19.5628624416 10.6706524349 12.449093796
3535 1 19.5628624416 10.6706524349 16.0059775853
3536 1 19.5628624416 10.6706524349 19.5628624416
3537 1 19.5628624416 10.6706524349 23.1197451638
3538 1 19.5628624416 10.6706524349 26.6766300202
3539 1 19.5628624416 10.6706524349 30.2335148765
3540 1 19.5628624416 10.6706524349 33.7903975987
3541 1 19.5628624416 14.2275362242 1.7784420369
3542 1 19.5628624416 14.2275362242 5.3353262174
3543 1 19.5628624416 14.2275362242 8.8922100067
3544 1 19.5628624416 14.2275362242 12.449093796
3545 1 19.5628624416 14.2275362242 16.0059775853
3546 1 19.5628624416 14.2275362242 19.5628624416
3547 1 19.5628624416 14.2275362242 23.1197451638
3548 1 19.5628624416 14.2275362242 26.6766300202
3549 1 19.5628624416 14.2275362242 30.2335148765
3550 1 19.5628624416 14.2275362242 33.7903975987
3551 1 19.5628624416 17.7844200134 1.7784420369
3552 1 19.5628624416 17.7844200134 5.3353262174
3553 1 19.5628624416 17.7844200134 8.8922100067
3554 1 19.5628624416 17.7844200134 12.449093796
3555 1 19.5628624416 17.7844200134 16.0059775853
3556 1 19.5628624416 17.7844200134 19.5628624416
3557 1 19.5628624416 17.7844200134 23.1197451638
3558 1 19.5628624416 17.7844200134 26.6766300202
3559 1 19.5628624416 17.7844200134 30.2335148765
3560 1 19.5628624416 17.7844200134 33.7903975987
3561 1 19.5628624416 21.3413048698 1.7784420369
3562 1 19.5628624416 21.3413048698 5.3353262174
3563 1 19.5628624416 21.3413048698 8.8922100067
3564 1 19.5628624416 21.3413048698 12.449093796
3565 1 19.5628624416 21.3413048698 16.0059775853
3566 1 19.5628624416 21.3413048698 19.5628624416
3567 1 19.5628624416 21.3413048698 23.1197451638
3568 1 19.5628624416 21.3413048698 26.6766300202
3569 1 19.5628624416 21.3413048698 30.2335148765
3570 1 19.5628624416 21.3413048698 33.7903975987
3571 1 19.5628624416 24.898187592 1.7784420369
3572 1 19.5628624416 24.898187592 5.3353262174
3573 1 19.5628624416 24.898187592 8.8922100067
3574 1 19.5628624416 24.898187592 12.449093796
3575 1 19.5628624416 24.898187592 16.0059775853
3576 1 19.5628624416 24.898187592 19.5628624416
3577 1 19.5628624416 24.898187592 23.1197451638
3578 1 19.5628624416 24.898187592 26.6766300202
3579 1 19.5628624416 24.898187592 30.2335148765
3580 1 19.5628624416 24.898187592 33.7903975987
3581 1 19.5628624416 28.4550724483 1.7784420369
3582 1 19.5628624416 28.4550724483 5.3353262174
3583 1 19.5628624416 28.4550724483 8.8922100067
3584 1 19.5628624416 28.4550724483 12.449093796
3585 1 19.5628624416 28.4550724483 16.0059775853
3586 1 19.5628624416 28.4550724483 19.5628624416
3587 1 19.5628624416 28.4550724483 23.1197451638
3588 1 19.5628624416 28.4550724483 26.6766300202
3589 1 19.5628624416 28.4550724483 30.2335148765
3590 1 19.5628624416 28.4550724483 33.7903975987
3591 1 19.5628624416 32.0119551706 1.7784420369
3592 1 19.5628624416 32.0119551706 5.3353262174
3593 1 19.5628624416 32.0119551706 8.8922100067
3594 1 19.5628624416 32.0119551706 12.449093796
3595 1 19.5628624416 32.0119551706 16.0059775853
3596 1 19.5628624416 32.0119551706 19.5628624416
3597 1 19.5628624416 32.0119551706 23.1197451638
3598 1 19.5628624416 32.0119551706 26.6766300202
3599 1 19.5628624416 32.0119551706 30.2335148765
3600 1 19.5628624416 32.0119551706 33.7903975987
3601 1 23.1197451638 0.0 1.7784420369
3602 1 23.1197451638 0.0 5.3353262174
3603 1 23.1197451638 0.0 8.8922100067
3604 1 23.1197451638 0.0 12.449093796
3605 1 23.1197451638 0.0 16.0059775853
3606 1 23.1197451638 0.0 19.5628624416
3607 1 23.1197451638 0.0 23.1197451638
3608 1 23.1197451638 0.0 26.6766300202
3609 1 23.1197451638 0.0 30.2335148765
3610 1 23.1197451638 0.0 33.7903975987
3611 1 23.1197451638 3.5568840383 1.7784420369
3612 1 23.1197451638 3.5568840383 5.3353262174
3613 1 23.1197451638 3.5568840383 8.8922100067
3614 1 23.1197451638 3.5568840383 12.449093796
3615 1 23.1197451638 3.5568840383 16.0059775853
3616 1 23.1197451638 3.5568840383 19.5628624416
3617 1 23.1197451638 3.5568840383 23.1197451638
3618 1 23.1197451638 3.5568840383 26.6766300202
3619 1 23.1197451638 3.5568840383 30.2335148765
3620 1 23.1197451638 3.5568840383 33.7903975987
3621 1 23.1197451638 7.1137681121 1.7784420369
3622 1 23.1197451638 7.1137681121 5.3353262174
3623 1 23.1197451638 7.1137681121 8.8922100067
3624 1 23.1197451638 7.1137681121 12.449093796
3625 1 23.1197451638 7.1137681121 16.0059775853
3626 1 23.1197451638 7.1137681121 19.5628624416
3627 1 23.1197451638 7.1137681121 23.1197451638
3628 1 23.1197451638 7.1137681121 26.6766300202
3629 1 23.1197451638 7.1137681121 30.2335148765
3630 1 23.1197451638 7.1137681121 33.7903975987
3631 1 23.1197451638 10.6706524349 1.7784420369
3632 1 23.1197451638 10.6706524349 5.3353262174
3633 1 23.1197451638 10.6706524349 8.8922100067
3634 1 23.1197451638 10.6706524349 12.449093796
3635 1 23.1197451638 10.6706524349 16.0059775853
3636 1 23.1197451638 10.6706524349 19.5628624416
3637 1 23.1197451638 10.6706524349 23.1197451638
3638 1 23.1197451638 10.6706524349 26.6766300202
3639 1 23.1197451638 10.6706524349 30.2335148765
3640 1 23.1197451638 10.6706524349 33.7903975987
3641 1 23.1197451638 14.2275362242 1.7784420369
3642 1 23.1197451638 14.2275362242 5.3353262174
3643 1 23.1197451638 14.2275362242 8.8922100067
3644 1 23.1197451638 14.2275362242 12.449093796
3645 1 23.1197451638 14.2275362242 16.0059775853
3646 1 23.1197451638 14.2275362242 19.5628624416
3647 1 23.1197451638 14.2275362242 23.1197451638
3648 1 23.1197451638 14.2275362242 26.6766300202
3649 1 23.1197451638 14.2275362242 30.2335148765
3650 1 23.1197451638 14.2275362242 33.7903975987
3651 1 23.1197451638 17.7844200134 1.7784420369
3652 1 23.1197451638 17.7844200134 5.3353262174
3653 1 23.1197451638 17.7844200134 8.8922100067
3654 1 23.1197451638 17.7844200134 12.449093796
3655 1 23.1197451638 17.7844200134 16.0059775853
3656 1 23.1197451638 17.7844200134 19.5628624416
3657 1 23.1197451638 17.7844200134 23.1197451638
3658 1 23.1197451638 17.7844200134 26.6766300202
3659 1 23.1197451638 17.7844200134 30.2335148765
3660 1 23.1197451638 17.7844200134 33.7903975987
3661 1 23.1197451638 21.3413048698 1.7784420369
3662 1 23.1197451638 21.3413048698 5.3353262174
3663 1 23.1197451638 21.3413048698 8.8922100067
3664 1 23.1197451638 21.3413048698 12.449093796
3665 1 23.1197451638 21.3413048698 16.0059775853
3666 1 23.1197451638 21.3413048698 19.5628624416
3667 1 23.1197451638 21.3413048698 23.1197451638
3668 1 23.1197451638 21.3413048698 26.6766300202
3669 1 23.1197451638 21.3413048698 30.2335148765
3670 1 23.1197451638 21.3413048698 33.7903975987
3671 1 23.1197451638 24.898187592 1.7784420369
3672 1 23.1197451638 24.898187592 5.3353262174
3673 1 23.1197451638 24.898187592 8.8922100067
3674 1 23.1197451638 24.898187592 12.449093796
3675 1 23.1197451638 24.898187592 16.0059775853
3676 1 23.1197451638 24.898187592 19.5628624416
3677 1 23.1197451638 24.898187592 23.1197451638
3678 1 23.1197451638 24.898187592 26.6766300202
3679 1 23.1197451638 24.898187592 30.2335148765
3680 1 23.1197451638 24.898187592 33.7903975987
3681 1 23.1197451638 28.4550724483 1.7784420369
3682 1 23.1197451638 28.4550724483 5.3353262174
3683 1 23.1197451638 28.4550724483 8.8922100067
3684 1 23.1197451638 28.4550724483 12.449093796
3685 1 23.1197451638 28.4550724483 16.0059775853
3686 1 23.1197451638 28.4550724483 19.5628624416
3687 1 23.1197451638 28.4550724483 23.1197451638
3688 1 23.1197451638 28.4550724483 26.6766300202
3689 1 23.1197451638 28.4550724483 30.2335148765
3690 1 23.1197451638 28.4550724483 33.7903975987
3691 1 23.1197451638 32.0119551706 1.7784420369
3692 1 23.1197451638 32.0119551706 5.3353262174
3693 1 23.1197451638 32.0119551706 8.8922100067
3694 1 23.1197451638 32.0119551706 12.449093796
3695 1 23.1197451638 32.0119551706 16.0059775853
3696 1 23.1197451638 32.0119551706 19.5628624416
3697 1 23.1197451638 32.0119551706 23.1197451638
3698 1 23.1197451638 32.0119551706 26.6766300202
3699 1 23.1197451638 32.0119551706 30.2335148765
3700 1 23.1197451638 32.0119551706 33.7903975987
3701 1 26.6766300202 0.0 1.7784420369
3702 1 26.6766300202 0.0 5.3353262174
3703 1 26.6766300202 0.0 8.8922100067
3704 1 26.6766300202 0.0 12.449093796
3705 1 26.6766300202 0.0 16.0059775853
3706 1 26.6766300202 0.0 19.5628624416
3707 1 26.6766300202 0.0 23.1197451638
3708 1 26.6766300202 0.0 26.6766300202
3709 1 26.6766300202 0.0 30.2335148765
3710 1 26.6766300202 0.0 33.7903975987
3711 1 26.6766300202 3.5568840383 1.7784420369
3712 1 26.6766300202 3.5568840383 5.3353262174
3713 1 26.6766300202 3.5568840383 8.8922100067
3714 1 26.6766300202 3.5568840383 12.449093796
3715 1 26.6766300202 3.5568840383 16.0059775853
3716 1 26.6766300202 3.5568840383 19.5628624416
3717 1 26.6766300202 3.5568840383 23.1197451638
3718 1 26.6766300202 3.5568840383 26.6766300202
3719 1 26.6766300202 3.5568840383 30.2335148765
3720 1 26.6766300202 3.5568840383 33.7903975987
3721 1 26.6766300202 7.1137681121 1.7784420369
3722 1 26.6766300202 7.1137681121 5.3353262174
3723 1 26.6766300202 7.1137681121 8.8922100067
3724 1 26.6766300202 7.1137681121 12.449093796
3725 1 26.6766300202 7.1137681121 16.0059775853
3726 1 26.6766300202 7.1137681121 19.5628624416
3727 1 26.6766300202 7.1137681121 23.1197451638
3728 1 26.6766300202 7.1137681121 26.6766300202
3729 1 26.6766300202 7.1137681121 30.2335148765
3730 1 26.6766300202 7.1137681121 33.7903975987
3731 1 26.6766300202 10.6706524349 1.7784420369
3732 1 26.6766300202 10.6706524349 5.3353262174
3733 1 26.6766300202 10.6706524349 8.8922100067
3734 1 26.6766300202 10.6706524349 12.449093796
3735 1 26.6766300202 10.6706524349 16.0059775853
3736 1 26.6766300202 10.6706524349 19.5628624416
3737 1 26.6766300202 10.6706524349 23.1197451638
3738 1 26.6766300202 10.6706524349 26.6766300202
3739 1 26.6766300202 10.6706524349 30.2335148765
3740 1 26.6766300202 10.6706524349 33.7903975987
3741 1 26.6766300202 14.2275362242 1.7784420369
3742 1 26.6766300202 14.2275362242 5.3353262174
3743 1 26.6766300202 14.2275362242 8.8922100067
3744 1 26.6766300202 14.2275362242 12.449093796
3745 1 26.6766300202 14.2275362242 16.0059775853
3746 1 26.6766300202 14.2275362242 19.5628624416
3747 1 26.6766300202 14.2275362242 23.1197451638
3748 1 26.6766300202 14.2275362242 26.6766300202
3749 1 26.6766300202 14.2275362242 30.2335148765
3750 1 26.6766300202 14.2275362242 33.7903975987
3751 1 26.6766300202 17.7844200134 1.7784420369
3752 1 26.6766300202 17.7844200134 5.3353262174
3753 1 26.6766300202 17.7844200134 8.8922100067
3754 1 26.6766300202 17.7844200134 12.449093796
3755 1 26.6766300202 17.7844200134 16.0059775853
3756 1 26.6766300202 17.7844200134 19.5628624416
3757 1 26.6766300202 17.7844200134 23.1197451638
3758 1 26.6766300202 17.7844200134 26.6766300202
3759 1 26.6766300202 17.7844200134 30.2335148765
3760 1 26.6766300202 17.7844200134 33.7903975987
3761 1 26.6766300202 21.3413048698 1.7784420369
3762 1 26.6766300202 21.3413048698 5.3353262174
3763 1 26.6766300202 21.3413048698 8.8922100067
3764 1 26.6766300202 21.3413048698 12.449093796
3765 1 26.6766300202 21.3413048698 16.0059775853
3766 1 26.6766300202 21.3413048698 19.5628624416
3767 1 26.6766300202 21.3413048698 23.1197451638
3768 1 26.6766300202 21.3413048698 26.6766300202
3769 1 26.6766300202 21.3413048698 30.2335148765
3770 1 26.6766300202 21.3413048698 33.7903975987
3771 1 26.6766300202 24.898187592 1.7784420369
3772 1 26.6766300202 24.898187592 5.3353262174
3773 1 26.6766300202 24.898187592 8.8922100067
3774 1 26.6766300202 24.898187592 12.449093796
3775 1 26.6766300202 24.898187592 16.0059775853
3776 1 26.6766300202 24.898187592 19.5628624416
3777 1 26.6766300202 24.898187592 23.1197451638
3778 1 26.6766300202 24.898187592 26.6766300202
3779 1 26.6766300202 24.898187592 30.2335148765
3780 1 26.6766300202 24.898187592 33.7903975987
3781 1 26.6766300202 28.4550724483 1.7784420369
3782 1 26.6766300202 28.4550724483 5.3353262174
3783 1 26.6766300202 28.4550724483 8.8922100067
3784 1 26.6766300202 28.4550724483 12.449093796
3785 1 26.6766300202 28.4550724483 16.0059775853
3786 1 26.6766300202 28.4550724483 19.5628624416
3787 1 26.6766300202 28.4550724483 23.1197451638
3788 1 26.6766300202 28.4550724483 26.6766300202
3789 1 26.6766300202 28.4550724483 30.2335148765
3790 1 26.6766300202 28.4550724483 33.7903975987
3791 1 26.6766300202 32.0119551706 1.7784420369
3792 1 26.6766300202 32.0119551706 5.3353262174
3793 1 26.6766300202 32.0119551706 8.8922100067
3794 1 26.6766300202 32.0119551706 12.449093796
3795 1 26.6766300202 32.0119551706 16.0059775853
3796 1 26.6766300202 32.0119551706 19.5628624416
3797 1 26.6766300202 32.0119551706 23.1197451638
3798 1 26.6766300202 32.0119551706 26.6766300202
3799 1 26.6766300202 32.0119551706 30.2335148765
3800 1 26.6766300202 32.0119551706 33.7903975987
3801 1 30.2335148765 0.0 1.7784420369
3802 1 30.2335148765 0.0 5.3353262174
3803 1 30.2335148765 0.0 8.8922100067
3804 1 30.2335148765 0.0 12.449093796
3805 1 30.2335148765 0.0 16.0059775853
3806 1 30.2335148765 0.0 19.5628624416
3807 1 30.2335148765 0.0 23.1197451638
3808 1 30.2335148765 0.0 26.6766300202
3809 1 30.2335148765 0.0 30.2335148765
3810 1 30.2335148765 0.0 33.7903975987
3811 1 30.2335148765 3.5568840383 1.7784420369
3812 1 30.2335148765 3.5568840383 5.3353262174
3813 1 30.2335148765 3.5568840383 8.8922100067
3814 1 30.2335148765 3.5568840383 12.449093796
3815 1 30.2335148765 3.5568840383 16.0059775853
3816 1 30.2335148765 3.5568840383 19.5628624416
3817 1 30.2335148765 3.5568840383 23.1197451638
3818 1 30.2335148765 3.5568840383 26.6766300202
3819 1 30.2335148765 3.5568840383 30.2335148765
3820 1 30.2335148765 3.5568840383 33.7903975987
3821 1 30.2335148765 7.1137681121 1.7784420369
3822 1 30.2335148765 7.1137681121 5.3353262174
3823 1 30.2335148765 7.1137681121 8.8922100067
3824 1 30.2335148765 7.1137681121 12.449093796
3825 1 30.2335148765 7.1137681121 16.0059775853
3826 1 30.2335148765 7.1137681121 19.5628624416
3827 1 30.2335148765 7.1137681121 23.1197451638
3828 1 30.2335148765 7.1137681121 26.6766300202
3829 1 30.2335148765 7.1137681121 30.2335148765
3830 1 30.2335148765 7.1137681121 33.7903975987
3831 1 30.2335148765 10.6706524349 1.7784420369
3832 1 30.2335148765 10.6706524349 5.3353262174
3833 1 30.2335148765 10.6706524349 8.8922100067
3834 1 30.2335148765 10.6706524349 12.449093796
3835 1 30.2335148765 10.6706524349 16.0059775853
3836 1 30.2335148765 10.6706524349 19.5628624416
3837 1 30.2335148765 10.6706524349 23.1197451638
3838 1 30.2335148765 10.6706524349 26.6766300202
3839 1 30.2335148765 10.6706524349 30.2335148765
3840 1 30.2335148765 10.6706524349 33.7903975987
3841 1 30.2335148765 14.2275362242 1.7784420369
3842 1 30.2335148765 14.2275362242 5.3353262174
3843 1 30.2335148765 14.2275362242 8.8922100067
3844 1 30.2335148765 14.2275362242 12.449093796
3845 1 30.2335148765 14.2275362242 16.0059775853
3846 1 30.2335148765 14.2275362242 19.5628624416
3847 1 30.2335148765 14.2275362242 23.1197451638
3848 1 30.2335148765 14.2275362242 26.6766300202
3849 1 30.2335148765 14.2275362242 30.2335148765
3850 1 30.2335148765 14.2275362242 33.7903975987
3851 1 30.2335148765 17.7844200134 1.7784420369
3852 1 30.2335148765 17.7844200134 5.3353262174
3853 1 30.2335148765 17.7844200134 8.8922100067
3854 1 30.2335148765 17.7844200134 12.449093796
3855 1 30.2335148765 17.7844200134 16.0059775853
3856 1 30.2335148765 17.7844200134 19.5628624416
3857 1 30.2335148765 17.7844200134 23.1197451638
3858 1 30.2335148765 17.7844200134 26.6766300202
3859 1 30.2335148765 17.7844200134 30.2335148765
3860 1 30.2335148765 17.7844200134 33.7903975987
3861 1 30.2335148765 21.3413048698 1.7784420369
3862 1 30.2335148765 21.3413048698 5.3353262174
3863 1 30.2335148765 21.3413048698 8.8922100067
3864 1 30.2335148765 21.3413048698 12.449093796
3865 1 30.2335148765 21.3413048698 16.0059775853
3866 1 30.2335148765 21.3413048698 19.5628624416
3867 1 30.2335148765 21.3413048698 23.1197451638
3868 1 30.2335148765 21.3413048698 26.6766300202
3869 1 30.2335148765 21.3413048698 30.2335148765
3870 1 30.2335148765 21.3413048698 33.7903975987
3871 1 30.2335148765 24.898187592 1.7784420369
3872 1 30.2335148765 24.898187592 5.3353262174
3873 1 30.2335148765 24.898187592 8.8922100067
3874 1 30.2335148765 24.898187592 12.449093796
3875 1 30.2335148765 24.898187592 16.0059775853
3876 1 30.2335148765 24.898187592 19.5628624416
3877 1 30.2335148765 24.898187592 23.1197451638
3878 1 30.2335148765 24.898187592 26.6766300202
3879 1 30.2335148765 24.898187592 30.2335148765
3880 1 30.2335148765 24.898187592 33.7903975987
3881 1 30.2335148765 28.4550724483 1.7784420369
3882 1 30.2335148765 28.4550724483 5.3353262174
3883 1 30.2335148765 28.4550724483 8.8922100067
3884 1 30.2335148765 28.4550724483 12.449093796
3885 1 30.2335148765 28.4550724483 16.0059775853
3886 1 30.2335148765 28.4550724483 19.5628624416
3887 1 30.2335148765 28.4550724483 23.1197451638
3888 1 30.2335148765 28.4550724483 26.6766300202
3889 1 30.2335148765 28.4550724483 30.2335148765
3890 1 30.2335148765 28.4550724483 33.7903975987
3891 1 30.2335148765 32.0119551706 1.7784420369
3892 1 30.2335148765 32.0119551706 5.3353262174
3893 1 30.2335148765 32.0119551706 8.8922100067
3894 1 30.2335148765 32.0119551706 12.449093796
3895 1 30.2335148765 32.0119551706 16.0059775853
3896 1 30.2335148765 32.0119551706 19.5628624416
3897 1 30.2335148765 32.0119551706 23.1197451638
3898 1 30.2335148765 32.0119551706 26.6766300202
3899 1 30.2335148765 32.0119551706 30.2335148765
3900 1 30.2335148765 32.0119551706 33.7903975987
3901 1 33.7903975987 0.0 1.7784420369
3902 1 33.7903975987 0.0 5.3353262174
3903 1 33.7903975987 0.0 8.8922100067
3904 1 33.7903975987 0.0 12.449093796
3905 1 33.7903975987 0.0 16.0059775853
3906 1 33.7903975987 0.0 19.5628624416
3907 1 33.7903975987 0.0 23.1197451638
3908 1 33.7903975987 0.0 26.6766300202
3909 1 33.7903975987 0.0 30.2335148765
3910 1 33.7903975987 0.0 33.7903975987
3911 1 33.7903975987 3.5568840383 1.7784420369
3912 1 33.7903975987 3.5568840383 5.3353262174
3913 1 33.7903975987 3.5568840383 8.8922100067
3914 1 33.7903975987 3.5568840383 12.449093796
3915 1 33.7903975987 3.5568840383 16.0059775853
3916 1 33.7903975987 3.5568840383 19.5628624416
3917 1 33.7903975987 3.5568840383 23.1197451638
3918 1 33.7903975987 3.5568840383 26.6766300202
3919 1 33.7903975987 3.5568840383 30.2335148765
3920 1 33.7903975987 3.5568840383 33.7903975987
3921 1 33.7903975987 7.1137681121 1.7784420369
3922 1 33.7903975987 7.1137681121 5.3353262174
3923 1 33.7903975987 7.1137681121 8.8922100067
3924 1 33.7903975987 7.1137681121 12.449093796
3925 1 33.7903975987 7.1137681121 16.0059775853
3926 1 33.7903975987 7.1137681121 19.5628624416
3927 1 33.7903975987 7.1137681121 23.1197451638
3928 1 33.7903975987 7.1137681121 26.6766300202
3929 1 33.7903975987 7.1137681121 30.2335148765
3930 1 33.7903975987 7.1137681121 33.7903975987
3931 1 33.7903975987 10.6706524349 1.7784420369
3932 1 33.7903975987 10.6706524349 5.3353262174
3933 1 33.7903975987 10.6706524349 8.8922100067
3934 1 33.7903975987 10.6706524349 12.449093796
3935 1 33.7903975987 10.6706524349 16.0059775853
3936 1 33.7903975987 10.6706524349 19.5628624416
3937 1 33.7903975987 10.6706524349 23.1197451638
3938 1 33.7903975987 10.6706524349 26.6766300202
3939 1 33.7903975987 10.6706524349 30.2335148765
3940 1 33.7903975987 10.6706524349 33.7903975987
3941 1 33.7903975987 14.2275362242 1.7784420369
3942 1 33.7903975987 14.2275362242 5.3353262174
3943 1 33.7903975987 14.2275362242 8.8922100067
3944 1 33.7903975987 14.2275362242 12.449093796
3945 1 33.7903975987 14.2275362242 16.0059775853
3946 1 33.7903975987 14.2275362242 19.5628624416
3947 1 33.7903975987 14.2275362242 23.1197451638
3948 1 33.7903975987 14.2275362242 26.6766300202
3949 1 33.7903975987 14.2275362242 30.2335148765
3950 1 33.7903975987 14.2275362242 33.7903975987
3951 1 33.7903975987 17.7844200134 1.7784420369
3952 1 33.7903975987 17.7844200134 5.3353262174
3953 1 33.7903975987 17.7844200134 8.8922100067
3954 1 33.7903975987 17.7844200134 12.449093796
3955 1 33.7903975987 17.7844200134 16.0059775853
3956 1 33.7903975987 17.7844200134 19.5628624416
3957 1 33.7903975987 17.7844200134 23.1197451638
3958 1 33.7903975987 17.7844200134 26.6766300202
3959 1 33.7903975987 17.7844200134 30.2335148765
3960 1 33.7903975987 17.7844200134 33.7903975987
3961 1 33.7903975987 21.3413048698 1.7784420369
3962 1 33.7903975987 21.3413048698 5.3353262174
3963 1 33.7903975987 21.3413048698 8.8922100067
3964 1 33.7903975987 21.3413048698 12.449093796
3965 1 33.7903975987 21.3413048698 16.0059775853
3966 1 33.7903975987 21.3413048698 19.5628624416
3967 1 33.7903975987 21.3413048698 23.1197451638
3968 1 33.7903975987 21.3413048698 26.6766300202
3969 1 33.7903975987 21.3413048698 30.2335148765
3970 1 33.7903975987 21.3413048698 33.7903975987
3971 1 33.7903975987 24.898187592 1.7784420369
3972 1 33.7903975987 24.898187592 5.3353262174
3973 1 33.7903975987 24.898187592 8.8922100067
3974 1 33.7903975987 24.898187592 12.449093796
3975 1 33.7903975987 24.898187592 16.0059775853
3976 1 33.7903975987 24.898187592 19.5628624416
3977 1 33.7903975987 24.898187592 23.1197451638
3978 1 33.7903975987 24.898187592 26.6766300202
3979 1 33.7903975987 24.898187592 30.2335148765
3980 1 33.7903975987 24.898187592 33.7903975987
3981 1 33.7903975987 28.4550724483 1.7784420369
3982 1 33.7903975987 28.4550724483 5.3353262174
3983 1 33.7903975987 28.4550724483 8.8922100067
3984 1 33.7903975987 28.4550724483 12.449093796
3985 1 33.7903975987 28.4550724483 16.0059775853
3986 1 33.7903975987 28.4550724483 19.5628624416
3987 1 33.7903975987 28.4550724483 23.1197451638
3988 1 33.7903975987 28.4550724483 26.6766300202
3989 1 33.7903975987 28.4550724483 30.2335148765
3990 1 33.7903975987 28.4550724483 33.7903975987
3991 1 33.7903975987 32.0119551706 1.7784420369
3992 1 33.7903975987 32.0119551706 5.3353262174
3993 1 33.7903975987 32.0119551706 8.8922100067
3994 1 33.7903975987 32.0119551706 12.449093796
3995 1 33.7903975987 32.0119551706 16.0059775853
3996 1 33.7903975987 32.0119551706 19.5628624416
3997 1 33.7903975987 32.0119551706 23.1197451638
3998 1 33.7903975987 32.0119551706 26.6766300202
3999 1 33.7903975987 32.0119551706 30.2335148765
4000 1 33.7903975987 32.0119551706 33.7903975987
4001 1 2.6676631087 0.8892210007 2.6676631087
4002 1 2.6676631087 0.8892210007 6.224546898
4003 1 2.6676631087 0.8892210007 9.7814312208
4004 1 2.6676631087 0.8892210007 13.3383150101
4005 1 2.6676631087 0.8892210007 16.8951987994
4006 1 2.6676631087 0.8892210007 20.4520825886
4007 1 2.6676631087 0.8892210007 24.008967445
4008 1 2.6676631087 0.8892210007 27.5658501672
4009 1 2.6676631087 0.8892210007 31.1227350235
4010 1 2.6676631087 0.8892210007 34.6796198799
4011 1 2.6676631087 4.4461050034 2.6676631087
4012 1 2.6676631087 4.4461050034 6.224546898
4013 1 2.6676631087 4.4461050034 9.7814312208
4014 1 2.6676631087 4.4461050034 13.3383150101
4015 1 2.6676631087 4.4461050034 16.8951987994
4016 1 2.6676631087 4.4461050034 20.4520825886
4017 1 2.6676631087 4.4461050034 24.008967445
4018 1 2.6676631087 4.4461050034 27.5658501672
4019 1 2.6676631087 4.4461050034 31.1227350235
4020 1 2.6676631087 4.4461050034 34.6796198799
4021 1 2.6676631087 8.0029887926 2.6676631087
4022 1 2.6676631087 8.0029887926 6.224546898
4023 1 2.6676631087 8.0029887926 9.7814312208
4024 1 2.6676631087 8.0029887926 13.3383150101
4025 1 2.6676631087 8.0029887926 16.8951987994
4026 1 2.6676631087 8.0029887926 20.4520825886
4027 1 2.6676631087 8.0029887926 24.008967445
4028 1 2.6676631087 8.0029887926 27.5658501672
4029 1 2.6676631087 8.0029887926 31.1227350235
4030 1 2.6676631087 8.0029887926 34.6796198799
4031 1 2.6676631087 11.5598725819 2.6676631087
4032 1 2.6676631087 11.5598725819 6.224546898
4033 1 2.6676631087 11.5598725819 9.7814312208
4034 1 2.6676631087 11.5598725819 13.3383150101
4035 1 2.6676631087 11.5598725819 16.8951987994
4036 1 2.6676631087 11.5598725819 20.4520825886
4037 1 2.6676631087 11.5598725819 24.008967445
4038 1 2.6676631087 11.5598725819 27.5658501672
4039 1 2.6676631087 11.5598725819 31.1227350235
4040 1 2.6676631087 11.5598725819 34.6796198799
4041 1 2.6676631087 15.1167574383 2.6676631087
4042 1 2.6676631087 15.1167574383 6.224546898
4043 1 2.6676631087 15.1167574383 9.7814312208
4044 1 2.6676631087 15.1167574383 13.3383150101
4045 1 2.6676631087 15.1167574383 16.8951987994
4046 1 2.6676631087 15.1167574383 20.4520825886
4047 1 2.6676631087 15.1167574383 24.008967445
4048 1 2.6676631087 15.1167574383 27.5658501672
4049 1 2.6676631087 15.1167574383 31.1227350235
4050 1 2.6676631087 15.1167574383 34.6796198799
4051 1 2.6676631087 18.6736401605 2.6676631087
4052 1 2.6676631087 18.6736401605 6.224546898
4053 1 2.6676631087 18.6736401605 9.7814312208
4054 1 2.6676631087 18.6736401605 13.3383150101
4055 1 2.6676631087 18.6736401605 16.8951987994
4056 1 2.6676631087 18.6736401605 20.4520825886
4057 1 2.6676631087 18.6736401605 24.008967445
4058 1 2.6676631087 18.6736401605 27.5658501672
4059 1 2.6676631087 18.6736401605 31.1227350235
4060 1 2.6676631087 18.6736401605 34.6796198799
4061 1 2.6676631087 22.2305250168 2.6676631087
4062 1 2.6676631087 22.2305250168 6.224546898
4063 1 2.6676631087 22.2305250168 9.7814312208
4064 1 2.6676631087 22.2305250168 13.3383150101
4065 1 2.6676631087 22.2305250168 16.8951987994
4066 1 2.6676631087 22.2305250168 20.4520825886
4067 1 2.6676631087 22.2305250168 24.008967445
4068 1 2.6676631087 22.2305250168 27.5658501672
4069 1 2.6676631087 22.2305250168 31.1227350235
4070 1 2.6676631087 22.2305250168 34.6796198799
4071 1 2.6676631087 25.7874098732 2.6676631087
4072 1 2.6676631087 25.7874098732 6.224546898
4073 1 2.6676631087 25.7874098732 9.7814312208
4074 1 2.6676631087 25.7874098732 13.3383150101
4075 1 2.6676631087 25.7874098732 16.8951987994
4076 1 2.6676631087 25.7874098732 20.4520825886
4077 1 2.6676631087 25.7874098732 24.008967445
4078 1 2.6676631087 25.7874098732 27.5658501672
4079 1 2.6676631087 25.7874098732 31.1227350235
4080 1 2.6676631087 25.7874098732 34.6796198799
4081 1 2.6676631087 29.3442925954 2.6676631087
4082 1 2.6676631087 29.3442925954 6.224546898
4083 1 2.6676631087 29.3442925954 9.7814312208
4084 1 2.6676631087 29.3442925954 13.3383150101
4085 1 2.6676631087 29.3442925954 16.8951987994
4086 1 2.6676631087 29.3442925954 20.4520825886
4087 1 2.6676631087 29.3442925954 24.008967445
4088 1 2.6676631087 29.3442925954 27.5658501672
4089 1 2.6676631087 29.3442925954 31.1227350235
4090 1 2.6676631087 29.3442925954 34.6796198799
4091 1 2.6676631087 32.9011774517 2.6676631087
4092 1 2.6676631087 32.9011774517 6.224546898
4093 1 2.6676631087 32.9011774517 9.7814312208
4094 1 2.6676631087 32.9011774517 13.3383150101
4095 1 2.6676631087 32.9011774517 16.8951987994
4096 1 2.6676631087 32.9011774517 20.4520825886
4097 1 2.6676631087 32.9011774517 24.008967445
4098 1 2.6676631087 32.9011774517 27.5658501672
4099 1 2.6676631087 32.9011774517 31.1227350235
4100 1 2.6676631087 32.9011774517 34.6796198799
4101 1 6.224546898 0.8892210007 2.6676631087
4102 1 6.224546898 0.8892210007 6.224546898
4103 1 6.224546898 0.8892210007 9.7814312208
4104 1 6.224546898 0.8892210007 13.3383150101
4105 1 6.224546898 0.8892210007 16.8951987994
4106 1 6.224546898 0.8892210007 20.4520825886
4107 1 6.224546898 0.8892210007 24.008967445
4108 1 6.224546898 0.8892210007 27.5658501672
4109 1 6.224546898 0.8892210007 31.1227350235
4110 1 6.224546898 0.8892210007 34.6796198799
4111 1 6.224546898 4.4461050034 2.6676631087
4112 1 6.224546898 4.4461050034 6.224546898
4113 1 6.224546898 4.4461050034 9.7814312208
4114 1 6.224546898 4.4461050034 13.3383150101
4115 1 6.224546898 4.4461050034 16.8951987994
4116 1 6.224546898 4.4461050034 20.4520825886
4117 1 6.224546898 4.4461050034 24.008967445
4118 1 6.224546898 4.4461050034 27.5658501672
4119 1 6.224546898 4.4461050034 31.1227350235
4120 1 6.224546898 4.4461050034 34.6796198799
4121 1 6.224546898 8.0029887926 2.6676631087
4122 1 6.224546898 8.0029887926 6.224546898
4123 1 6.224546898 8.0029887926 9.7814312208
4124 1 6.224546898 8.0029887926 13.3383150101
4125 1 6.224546898 8.0029887926 16.8951987994
4126 1 6.224546898 8.0029887926 20.4520825886
4127 1 6.224546898 8.0029887926 24.008967445
4128 1 6.224546898 8.0029887926 27.5658501672
4129 1 6.224546898 8.0029887926 31.1227350235
4130 1 6.224546898 8.0029887926 34.6796198799
4131 1 6.224546898 11.5598725819 2.6676631087
4132 1 6.224546898 11.5598725819 6.224546898
4133 1 6.224546898 11.5598725819 9.7814312208
4134 1 6.224546898 11.5598725819 13.3383150101
4135 1 6.224546898 11.5598725819 16.8951987994
4136 1 6.224546898 11.5598725819 20.4520825886
4137 1 6.224546898 11.5598725819 24.008967445
4138 1 6.224546898 11.5598725819 27.5658501672
4139 1 6.224546898 11.5598725819 31.1227350235
4140 1 6.224546898 11.5598725819 34.6796198799
4141 1 6.224546898 15.1167574383 2.6676631087
4142 1 6.224546898 15.1167574383 6.224546898
4143 1 6.224546898 15.1167574383 9.7814312208
4144 1 6.224546898 15.1167574383 13.3383150101
4145 1 6.224546898 15.1167574383 16.8951987994
4146 1 6.224546898 15.1167574383 20.4520825886
4147 1 6.224546898 15.1167574383 24.008967445
4148 1 6.224546898 15.1167574383 27.5658501672
4149 1 6.224546898 15.1167574383 31.1227350235
4150 1 6.224546898 15.1167574383 34.6796198799
4151 1 6.224546898 18.6736401605 2.6676631087
4152 1 6.224546898 18.6736401605 6.224546898
4153 1 6.224546898 18.6736401605 9.7814312208
4154 1 6.224546898 18.6736401605 13.3383150101
4155 1 6.224546898 18.6736401605 16.8951987994
4156 1 6.224546898 18.6736401605 20.4520825886
4157 1 6.224546898 18.6736401605 24.008967445
4158 1 6.224546898 18.6736401605 27.5658501672
4159 1 6.224546898 18.6736401605 31.1227350235
4160 1 6.224546898 18.6736401605 34.6796198799
4161 1 6.224546898 22.2305250168 2.6676631087
4162 1 6.224546898 22.2305250168 6.224546898
4163 1 6.224546898 22.2305250168 9.7814312208
4164 1 6.224546898 22.2305250168 13.3383150101
4165 1 6.224546898 22.2305250168 16.8951987994
4166 1 6.224546898 22.2305250168 20.4520825886
4167 1 6.224546898 22.2305250168 24.008967445
4168 1 6.224546898 22.2305250168 27.5658501672
4169 1 6.224546898 22.2305250168 31.1227350235
4170 1 6.224546898 22.2305250168 34.6796198799
4171 1 6.224546898 25.7874098732 2.6676631087
4172 1 6.224546898 25.7874098732 6.224546898
4173 1 6.224546898 25.7874098732 9.7814312208
4174 1 6.224546898 25.7874098732 13.3383150101
4175 1 6.224546898 25.7874098732 16.8951987994
4176 1 6.224546898 25.7874098732 20.4520825886
4177 1 6.224546898 25.7874098732 24.008967445
4178 1 6.224546898 25.7874098732 27.5658501672
4179 1 6.224546898 25.7874098732 31.1227350235
4180 1 6.224546898 25.7874098732 34.6796198799
4181 1 6.224546898 29.3442925954 2.6676631087
4182 1 6.224546898 29.3442925954 6.224546898
4183 1 6.224546898 29.3442925954 9.7814312208
4184 1 6.224546898 29.3442925954 13.3383150101
4185 1 6.224546898 29.3442925954 16.8951987994
4186 1 6.224546898 29.3442925954 20.4520825886
4187 1 6.224546898 29.3442925954 24.008967445
4188 1 6.224546898 29.3442925954 27.5658501672
4189 1 6.224546898 29.3442925954 31.1227350235
4190 1 6.224546898 29.3442925954 34.6796198799
4191 1 6.224546898 32.9011774517 2.6676631087
4192 1 6.224546898 32.9011774517 6.224546898
4193 1 6.224546898 32.9011774517 9.7814312208
4194 1 6.224546898 32.9011774517 13.3383150101
4195 1 6.224546898 32.9011774517 16.8951987994
4196 1 6.224546898 32.9011774517 20.4520825886
4197 1 6.224546898 32.9011774517 24.008967445
4198 1 6.224546898 32.9011774517 27.5658501672
4199 1 6.224546898 32.9011774517 31.1227350235
4200 1 6.224546898 32.9011774517 34.6796198799
4201 1 9.7814312208 0.8892210007 2.6676631087
4202 1 9.7814312208 0.8892210007 6.224546898
4203 1 9.7814312208 0.8892210007 9.7814312208
4204 1 9.7814312208 0.8892210007 13.3383150101
4205 1 9.7814312208 0.8892210007 16.8951987994
4206 1 9.7814312208 0.8892210007 20.4520825886
4207 1 9.7814312208 0.8892210007 24.008967445
4208 1 9.7814312208 0.8892210007 27.5658501672
4209 1 9.7814312208 0.8892210007 31.1227350235
4210 1 9.7814312208 0.8892210007 34.6796198799
4211 1 9.7814312208 4.4461050034 2.6676631087
4212 1 9.7814312208 4.4461050034 6.224546898
4213 1 9.7814312208 4.4461050034 9.7814312208
4214 1 9.7814312208 4.4461050034 13.3383150101
4215 1 9.7814312208 4.4461050034 16.8951987994
4216 1 9.7814312208 4.4461050034 20.4520825886
4217 1 9.7814312208 4.4461050034 24.008967445
4218 1 9.7814312208 4.4461050034 27.5658501672
4219 1 9.7814312208 4.4461050034 31.1227350235
4220 1 9.7814312208 4.4461050034 34.6796198799
4221 1 9.7814312208 8.0029887926 2.6676631087
4222 1 9.7814312208 8.0029887926 6.224546898
4223 1 9.7814312208 8.0029887926 9.7814312208
4224 1 9.7814312208 8.0029887926 13.3383150101
4225 1 9.7814312208 8.0029887926 16.8951987994
4226 1 9.7814312208 8.0029887926 20.4520825886
4227 1 9.7814312208 8.0029887926 24.008967445
4228 1 9.7814312208 8.0029887926 27.5658501672
4229 1 9.7814312208 8.0029887926 31.1227350235
4230 1 9.7814312208 8.0029887926 34.6796198799
4231 1 9.7814312208 11.5598725819 2.6676631087
4232 1 9.7814312208 11.5598725819 6.224546898
4233 1 9.7814312208 11.5598725819 9.7814312208
4234 1 9.7814312208 11.5598725819 13.3383150101
4235 1 9.7814312208 11.5598725819 16.8951987994
4236 1 9.7814312208 11.5598725819 20.4520825886
4237 1 9.7814312208 11.5598725819 24.008967445
4238 1 9.7814312208 11.5598725819 27.5658501672
4239 1 9.7814312208 11.5598725819 31.1227350235
4240 1 9.7814312208 11.5598725819 34.6796198799
4241 1 9.7814312208 15.1167574383 2.6676631087
4242 1 9.7814312208 15.1167574383 6.224546898
4243 1 9.7814312208 15.1167574383 9.7814312208
4244 1 9.7814312208 15.1167574383 13.3383150101
4245 1 9.7814312208 15.1167574383 16.8951987994
4246 1 9.7814312208 15.1167574383 20.4520825886
4247 1 9.7814312208 15.1167574383 24.008967445
4248 1 9.7814312208 15.1167574383 27.5658501672
4249 1 9.7814312208 15.1167574383 31.1227350235
4250 1 9.7814312208 15.1167574383 34.6796198799
4251 1 9.7814312208 18.6736401605 2.6676631087
4252 1 9.7814312208 18.6736401605 6.224546898
4253 1 9.7814312208 18.6736401605 9.7814312208
4254 1 9.7814312208 18.6736401605 13.3383150101
4255 1 9.7814312208 18.6736401605 16.8951987994
4256 1 9.7814312208 18.6736401605 20.4520825886
4257 1 9.7814312208 18.6736401605 24.008967445
4258 1 9.7814312208 18.6736401605 27.5658501672
4259 1 9.7814312208 18.6736401605 31.1227350235
4260 1 9.7814312208 18.6736401605 34.6796198799
4261 1 9.7814312208 22.2305250168 2.6676631087
4262 1 9.7814312208 22.2305250168 6.224546898
4263 1 9.7814312208 22.2305250168 9.7814312208
4264 1 9.7814312208 22.2305250168 13.3383150101
4265 1 9.7814312208 22.2305250168 16.8951987994
4266 1 9.7814312208 22.2305250168 20.4520825886
4267 1 9.7814312208 22.2305250168 24.008967445
4268 1 9.7814312208 22.2305250168 27.5658501672
4269 1 9.7814312208 22.2305250168 31.1227350235
4270 1 9.7814312208 22.2305250168 34.6796198799
4271 1 9.7814312208 25.7874098732 2.6676631087
4272 1 9.7814312208 25.7874098732 6.224546898
4273 1 9.7814312208 25.7874098732 9.7814312208
4274 1 9.7814312208 25.7874098732 13.3383150101
4275 1 9.7814312208 25.7874098732 16.8951987994
4276 1 9.7814312208 25.7874098732 20.4520825886
4277 1 9.7814312208 25.7874098732 24.008967445
4278 1 9.7814312208 25.7874098732 27.5658501672
4279 1 9.7814312208 25.7874098732 31.1227350235
4280 1 9.7814312208 25.7874098732 34.6796198799
4281 1 9.7814312208 29.3442925954 2.6676631087
4282 1 9.7814312208 29.3442925954 6.224546898
4283 1 9.7814312208 29.3442925954 9.7814312208
4284 1 9.7814312208 29.3442925954 13.3383150101
4285 1 9.7814312208 29.3442925954 16.8951987994
4286 1 9.7814312208 29.3442925954 20.4520825886
4287 1 9.7814312208 29.3442925954 24.008967445
4288 1 9.7814312208 29.3442925954 27.5658501672
4289 1 9.7814312208 29.3442925954 31.1227350235
4290 1 9.7814312208 29.3442925954 34.6796198799
4291 1 9.7814312208 32.9011774517 2.6676631087
4292 1 9.7814312208 32.9011774517 6.224546898
4293 1 9.7814312208 32.9011774517 9.7814312208
4294 1 9.7814312208 32.9011774517 13.3383150101
4295 1 9.7814312208 32.9011774517 16.8951987994
4296 1 9.7814312208 32.9011774517 20.4520825886
4297 1 9.7814312208 32.9011774517 24.008967445
4298 1 9.7814312208 32.9011774517 27.5658501672
4299 1 9.7814312208 32.9011774517 31.1227350235
4300 1 9.7814312208 32.9011774517 34.6796198799
4301 1 13.3383150101 0.8892210007 2.6676631087
4302 1 13.3383150101 0.8892210007 6.224546898
4303 1 13.3383150101 0.8892210007 9.7814312208
4304 1 13.3383150101 0.8892210007 13.3383150101
4305 1 13.3383150101 0.8892210007 16.8951987994
4306 1 13.3383150101 0.8892210007 20.4520825886
4307 1 13.3383150101 0.8892210007 24.008967445
4308 1 13.3383150101 0.8892210007 27.5658501672
4309 1 13.3383150101 0.8892210007 31.1227350235
4310 1 13.3383150101 0.8892210007 34.6796198799
4311 1 13.3383150101 4.4461050034 2.6676631087
4312 1 13.3383150101 4.4461050034 6.224546898
4313 1 13.3383150101 4.4461050034 9.7814312208
4314 1 13.3383150101 4.4461050034 13.3383150101
4315 1 13.3383150101 4.4461050034 16.8951987994
4316 1 13.3383150101 4.4461050034 20.4520825886
4317 1 13.3383150101 4.4461050034 24.008967445
4318 1 13.3383150101 4.4461050034 27.5658501672
4319 1 13.3383150101 4.4461050034 31.1227350235
4320 1 13.3383150101 4.4461050034 34.6796198799
4321 1 13.3383150101 8.0029887926 2.6676631087
4322 1 13.3383150101 8.0029887926 6.224546898
4323 1 13.3383150101 8.0029887926 9.7814312208
4324 1 13.3383150101 8.0029887926 13.3383150101
4325 1 13.3383150101 8.0029887926 16.8951987994
4326 1 13.3383150101 8.0029887926 20.4520825886
4327 1 13.3383150101 8.0029887926 24.008967445
4328 1 13.3383150101 8.0029887926 27.5658501672
4329 1 13.3383150101 8.0029887926 31.1227350235
4330 1 13.3383150101 8.0029887926 34.6796198799
4331 1 13.3383150101 11.5598725819 2.6676631087
4332 1 13.3383150101 11.5598725819 6.224546898
4333 1 13.3383150101 11.5598725819 9.7814312208
4334 1 13.3383150101 11.5598725819 13.3383150101
4335 1 13.3383150101 11.5598725819 16.8951987994
4336 1 13.3383150101 11.5598725819 20.4520825886
4337 1 13.3383150101 11.5598725819 24.008967445
4338 1 13.3383150101 11.5598725819 27.5658501672
4339 1 13.3383150101 11.5598725819 31.1227350235
4340 1 13.3383150101 11.5598725819 34.6796198799
4341 1 13.3383150101 15.1167574383 2.6676631087
4342 1 13.3383150101 15.1167574383 6.224546898
4343 1 13.3383150101 15.1167574383 9.7814312208
4344 1 13.3383150101 15.1167574383 13.3383150101
4345 1 13.3383150101 15.1167574383 16.8951987994
4346 1 13.3383150101 15.1167574383 20.4520825886
4347 1 13.3383150101 15.1167574383 24.008967445
4348 1 13.3383150101 15.1167574383 27.5658501672
4349 1 13.3383150101 15.1167574383 31.1227350235
4350 1 13.3383150101 15.1167574383 34.6796198799
4351 1 13.3383150101 18.6736401605 2.6676631087
4352 1 13.3383150101 18.6736401605 6.224546898
4353 1 13.3383150101 18.6736401605 9.7814312208
4354 1 13.3383150101 18.6736401605 13.3383150101
4355 1 13.3383150101 18.6736401605 16.8951987994
4356 1 13.3383150101 18.6736401605 20.4520825886
4357 1 13.3383150101 18.6736401605 24.008967445
4358 1 13.3383150101 18.6736401605 27.5658501672
4359 1 13.3383150101 18.6736401605 31.1227350235
4360 1 13.3383150101 18.6736401605 34.6796198799
4361 1 13.3383150101 22.2305250168 2.6676631087
4362 1 13.3383150101 22.2305250168 6.224546898
4363 1 13.3383150101 22.2305250168 9.7814312208
4364 1 13.3383150101 22.2305250168 13.3383150101
4365 1 13.3383150101 22.2305250168 16.8951987994
4366 1 13.3383150101 22.2305250168 20.4520825886
4367 1 13.3383150101 22.2305250168 24.008967445
4368 1 13.3383150101 22.2305250168 27.5658501672
4369 1 13.3383150101 22.2305250168 31.1227350235
4370 1 13.3383150101 22.2305250168 34.6796198799
4371 1 13.3383150101 25.7874098732 2.6676631087
4372 1 13.3383150101 25.7874098732 6.224546898
4373 1 13.3383150101 25.7874098732 9.7814312208
4374 1 13.3383150101 25.7874098732 13.3383150101
4375 1 13.3383150101 25.7874098732 16.8951987994
4376 1 13.3383150101 25.7874098732 20.4520825886
4377 1 13.3383150101 25.7874098732 24.008967445
4378 1 13.3383150101 25.7874098732 27.5658501672
4379 1 13.3383150101 25.7874098732 31.1227350235
4380 1 13.3383150101 25.7874098732 34.6796198799
4381 1 13.3383150101 29.3442925954 2.6676631087
4382 1 13.3383150101 29.3442925954 6.224546898
4383 1 13.3383150101 29.3442925954 9.7814312208
4384 1 13.3383150101 29.3442925954 13.3383150101
4385 1 13.3383150101 29.3442925954 16.8951987994
4386 1 13.3383150101 29.3442925954 20.4520825886
4387 1 13.3383150101 29.3442925954 24.008967445
4388 1 13.3383150101 29.3442925954 27.5658501672
4389 1 13.3383150101 29.3442925954 31.1227350235
4390 1 13.3383150101 29.3442925954 34.6796198799
4391 1 13.3383150101 32.9011774517 2.6676631087
4392 1 13.3383150101 32.9011774517 6.224546898
4393 1 13.3383150101 32.9011774517 9.7814312208
4394 1 13.3383150101 32.9011774517 13.3383150101
4395 1 13.3383150101 32.9011774517 16.8951987994
4396 1 13.3383150101 32.9011774517 20.4520825886
4397 1 13.3383150101 32.9011774517 24.008967445
4398 1 13.3383150101 32.9011774517 27.5658501672
4399 1 13.3383150101 32.9011774517 31.1227350235
4400 1 13.3383150101 32.9011774517 34.6796198799
4401 1 16.8951987994 0.8892210007 2.6676631087
4402 1 16.8951987994 0.8892210007 6.224546898
4403 1 16.8951987994 0.8892210007 9.7814312208
4404 1 16.8951987994 0.8892210007 13.3383150101
4405 1 16.8951987994 0.8892210007 16.8951987994
4406 1 16.8951987994 0.8892210007 20.4520825886
4407 1 16.8951987994 0.8892210007 24.008967445
4408 1 16.8951987994 0.8892210007 27.5658501672
4409 1 16.8951987994 0.8892210007 31.1227350235
4410 1 16.8951987994 0.8892210007 34.6796198799
4411 1 16.8951987994 4.4461050034 2.6676631087
4412 1 16.8951987994 4.4461050034 6.224546898
4413 1 16.8951987994 4.4461050034 9.7814312208
4414 1 16.8951987994 4.4461050034 13.3383150101
4415 1 16.8951987994 4.4461050034 16.8951987994
4416 1 16.8951987994 4.4461050034 20.4520825886
4417 1 16.8951987994 4.4461050034 24.008967445
4418 1 16.8951987994 4.4461050034 27.5658501672
4419 1 16.8951987994 4.4461050034 31.1227350235
4420 1 16.8951987994 4.4461050034 34.6796198799
4421 1 16.8951987994 8.0029887926 2.6676631087
4422 1 16.8951987994 8.0029887926 6.224546898
4423 1 16.8951987994 8.0029887926 9.7814312208
4424 1 16.8951987994 8.0029887926 13.3383150101
4425 1 16.8951987994 8.0029887926 16.8951987994
4426 1 16.8951987994 8.0029887926 20.4520825886
4427 1 16.8951987994 8.0029887926 24.008967445
4428 1 16.8951987994 8.0029887926 27.5658501672
4429 1 16.8951987994 8.0029887926 31.1227350235
4430 1 16.8951987994 8.0029887926 34.6796198799
4431 1 16.8951987994 11.5598725819 2.6676631087
4432 1 16.8951987994 11.5598725819 6.224546898
4433 1 16.8951987994 11.5598725819 9.7814312208
4434 1 16.8951987994 11.5598725819 13.3383150101
4435 1 16.8951987994 11.5598725819 16.8951987994
4436 1 16.8951987994 11.5598725819 20.4520825886
4437 1 16.8951987994 11.5598725819 24.008967445
4438 1 16.8951987994 11.5598725819 27.5658501672
4439 1 16.8951987994 11.5598725819 31.1227350235
4440 1 16.8951987994 11.5598725819 34.6796198799
4441 1 16.8951987994 15.1167574383 2.6676631087
4442 1 16.8951987994 15.1167574383 6.224546898
4443 1 16.8951987994 15.1167574383 9.7814312208
4444 1 16.8951987994 15.1167574383 13.3383150101
4445 1 16.8951987994 15.1167574383 16.8951987994
4446 1 16.8951987994 15.1167574383 20.4520825886
4447 1 16.8951987994 15.1167574383 24.008967445
4448 1 16.8951987994 15.1167574383 27.5658501672
4449 1 16.8951987994 15.1167574383 31.1227350235
4450 1 16.8951987994 15.1167574383 34.6796198799
4451 1 16.8951987994 18.6736401605 2.6676631087
4452 1 16.8951987994 18.6736401605 6.224546898
4453 1 16.8951987994 18.6736401605 9.7814312208
4454 1 16.8951987994 18.6736401605 13.3383150101
4455 1 16.8951987994 18.6736401605 16.8951987994
4456 1 16.8951987994 18.6736401605 20.4520825886
4457 1 16.8951987994 18.6736401605 24.008967445
4458 1 16.8951987994 18.6736401605 27.5658501672
4459 1 16.8951987994 18.6736401605 31.1227350235
4460 1 16.8951987994 18.6736401605 34.6796198799
4461 1 16.8951987994 22.2305250168 2.6676631087
4462 1 16.8951987994 22.2305250168 6.224546898
4463 1 16.8951987994 22.2305250168 9.7814312208
4464 1 16.8951987994 22.2305250168 13.3383150101
4465 1 16.8951987994 22.2305250168 16.8951987994
4466 1 16.8951987994 22.2305250168 20.4520825886
4467 1 16.8951987994 22.2305250168 24.008967445
4468 1 16.8951987994 22.2305250168 27.5658501672
4469 1 16.8951987994 22.2305250168 31.1227350235
4470 1 16.8951987994 22.2305250168 34.6796198799
4471 1 16.8951987994 25.7874098732 2.6676631087
4472 1 16.8951987994 25.7874098732 6.224546898
4473 1 16.8951987994 25.7874098732 9.7814312208
4474 1 16.8951987994 25.7874098732 13.3383150101
4475 1 16.8951987994 25.7874098732 16.8951987994
4476 1 16.8951987994 25.7874098732 20.4520825886
4477 1 16.8951987994 25.7874098732 24.008967445
4478 1 16.8951987994 25.7874098732 27.5658501672
4479 1 16.8951987994 25.7874098732 31.1227350235
4480 1 16.8951987994 25.7874098732 34.6796198799
4481 1 16.8951987994 29.3442925954 2.6676631087
4482 1 16.8951987994 29.3442925954 6.224546898
4483 1 16.8951987994 29.3442925954 9.7814312208
4484 1 16.8951987994 29.3442925954 13.3383150101
4485 1 16.8951987994 29.3442925954 16.8951987994
4486 1 16.8951987994 29.3442925954 20.4520825886
4487 1 16.8951987994 29.3442925954 24.008967445
4488 1 16.8951987994 29.3442925954 27.5658501672
4489 1 16.8951987994 29.3442925954 31.1227350235
4490 1 16.8951987994 29.3442925954 34.6796198799
4491 1 16.8951987994 32.9011774517 2.6676631087
4492 1 16.8951987994 32.9011774517 6.224546898
4493 1 16.8951987994 32.9011774517 9.7814312208
4494 1 16.8951987994 32.9011774517 13.3383150101
4495 1 16.8951987994 32.9011774517 16.8951987994
4496 1 16.8951987994 32.9011774517 20.4520825886
4497 1 16.8951987994 32.9011774517 24.008967445
4498 1 16.8951987994 32.9011774517 27.5658501672
4499 1 16.8951987994 32.9011774517 31.1227350235
4500 1 16.8951987994 32.9011774517 34.6796198799
4501 1 20.4520825886 0.8892210007 2.6676631087
4502 1 20.4520825886 0.8892210007 6.224546898
4503 1 20.4520825886 0.8892210007 9.7814312208
4504 1 20.4520825886 0.8892210007 13.3383150101
4505 1 20.4520825886 0.8892210007 16.8951987994
4506 1 20.4520825886 0.8892210007 20.4520825886
4507 1 20.4520825886 0.8892210007 24.008967445
4508 1 20.4520825886 0.8892210007 27.5658501672
4509 1 20.4520825886 0.8892210007 31.1227350235
4510 1 20.4520825886 0.8892210007 34.6796198799
4511 1 20.4520825886 4.4461050034 2.6676631087
4512 1 20.4520825886 4.4461050034 6.224546898
4513 1 20.4520825886 4.4461050034 9.7814312208
4514 1 20.4520825886 4.4461050034 13.3383150101
4515 1 20.4520825886 4.4461050034 16.8951987994
4516 1 20.4520825886 4.4461050034 20.4520825886
4517 1 20.4520825886 4.4461050034 24.008967445
4518 1 20.4520825886 4.4461050034 27.5658501672
4519 1 20.4520825886 4.4461050034 31.1227350235
4520 1 20.4520825886 4.4461050034 34.6796198799
4521 1 20.4520825886 8.0029887926 2.6676631087
4522 1 20.4520825886 8.0029887926 6.224546898
4523 1 20.4520825886 8.0029887926 9.7814312208
4524 1 20.4520825886 8.0029887926 13.3383150101
4525 1 20.4520825886 8.0029887926 16.8951987994
4526 1 20.4520825886 8.0029887926 20.4520825886
4527 1 20.4520825886 8.0029887926 24.008967445
4528 1 20.4520825886 8.0029887926 27.5658501672
4529 1 20.4520825886 8.0029887926 31.1227350235
4530 1 20.4520825886 8.0029887926 34.6796198799
4531 1 20.4520825886 11.5598725819 2.6676631087
4532 1 20.4520825886 11.5598725819 6.224546898
4533 1 20.4520825886 11.5598725819 9.7814312208
4534 1 20.4520825886 11.5598725819 13.3383150101
4535 1 20.4520825886 11.5598725819 16.8951987994
4536 1 20.4520825886 11.5598725819 20.4520825886
4537 1 20.4520825886 11.5598725819 24.008967445
4538 1 20.4520825886 11.5598725819 27.5658501672
4539 1 20.4520825886 11.5598725819 31.1227350235
4540 1 20.4520825886 11.5598725819 34.6796198799
4541 1 20.4520825886 15.1167574383 2.6676631087
4542 1 20.4520825886 15.1167574383 6.224546898
4543 1 20.4520825886 15.1167574383 9.7814312208
4544 1 20.4520825886 15.1167574383 13.3383150101
4545 1 20.4520825886 15.1167574383 16.8951987994
4546 1 20.4520825886 15.1167574383 20.4520825886
4547 1 20.4520825886 15.1167574383 24.008967445
4548 1 20.4520825886 15.1167574383 27.5658501672
4549 1 20.4520825886 15.1167574383 31.1227350235
4550 1 20.4520825886 15.1167574383 34.6796198799
4551 1 20.4520825886 18.6736401605 2.6676631087
4552 1 20.4520825886 18.6736401605 6.224546898
4553 1 20.4520825886 18.6736401605 9.7814312208
4554 1 20.4520825886 18.6736401605 13.3383150101
4555 1 20.4520825886 18.6736401605 16.8951987994
4556 1 20.4520825886 18.6736401605 20.4520825886
4557 1 20.4520825886 18.6736401605 24.008967445
4558 1 20.4520825886 18.6736401605 27.5658501672
4559 1 20.4520825886 18.6736401605 31.1227350235
4560 1 20.4520825886 18.6736401605 34.6796198799
4561 1 20.4520825886 22.2305250168 2.6676631087
4562 1 20.4520825886 22.2305250168 6.224546898
4563 1 20.4520825886 22.2305250168 9.7814312208
4564 1 20.4520825886 22.2305250168 13.3383150101
4565 1 20.4520825886 22.2305250168 16.8951987994
4566 1 20.4520825886 22.2305250168 20.4520825886
4567 1 20.4520825886 22.2305250168 24.008967445
4568 1 20.4520825886 22.2305250168 27.5658501672
4569 1 20.4520825886 22.2305250168 31.1227350235
4570 1 20.4520825886 22.2305250168 34.6796198799
4571 1 20.4520825886 25.7874098732 2.6676631087
4572 1 20.4520825886 25.7874098732 6.224546898
4573 1 20.4520825886 25.7874098732 9.7814312208
4574 1 20.4520825886 25.7874098732 13.3383150101
4575 1 20.4520825886 25.7874098732 16.8951987994
4576 1 20.4520825886 25.7874098732 20.4520825886
4577 1 20.4520825886 25.7874098732 24.008967445
4578 1 20.4520825886 25.7874098732 27.5658501672
4579 1 20.4520825886 25.7874098732 31.1227350235
4580 1 20.4520825886 25.7874098732 34.6796198799
4581 1 20.4520825886 29.3442925954 2.6676631087
4582 1 20.4520825886 29.3442925954 6.224546898
4583 1 20.4520825886 29.3442925954 9.7814312208
4584 1 20.4520825886 29.3442925954 13.3383150101
4585 1 20.4520825886 29.3442925954 16.8951987994
4586 1 20.4520825886 29.3442925954 20.4520825886
4587 1 20.4520825886 29.3442925954 24.008967445
4588 1 20.4520825886 29.3442925954 27.5658501672
4589 1 20.4520825886 29.3442925954 31.1227350235
4590 1 20.4520825886 29.3442925954 34.6796198799
4591 1 20.4520825886 32.9011774517 2.6676631087
4592 1 20.4520825886 32.9011774517 6.224546898
4593 1 20.4520825886 32.9011774517 9.7814312208
4594 1 20.4520825886 32.9011774517 13.3383150101
4595 1 20.4520825886 32.9011774517 16.8951987994
4596 1 20.4520825886 32.9011774517 20.4520825886
4597 1 20.4520825886 32.9011774517 24.008967445
4598 1 20.4520825886 32.9011774517 27.5658501672
4599 1 20.4520825886 32.9011774517 31.1227350235
4600 1 20.4520825886 32.9011774517 34.6796198799
4601 1 24.008967445 0.8892210007 2.6676631087
4602 1 24.008967445 0.8892210007 6.224546898
4603 1 24.008967445 0.8892210007 9.7814312208
4604 1 24.008967445 0.8892210007 13.3383150101
4605 1 24.008967445 0.8892210007 16.8951987994
4606 1 24.008967445 0.8892210007 20.4520825886
4607 1 24.008967445 0.8892210007 24.008967445
4608 1 24.008967445 0.8892210007 27.5658501672
4609 1 24.008967445 0.8892210007 31.1227350235
4610 1 24.008967445 0.8892210007 34.6796198799
4611 1 24.008967445 4.4461050034 2.6676631087
4612 1 24.008967445 4.4461050034 6.224546898
4613 1 24.008967445 4.4461050034 9.7814312208
4614 1 24.008967445 4.4461050034 13.3383150101
4615 1 24.008967445 4.4461050034 16.8951987994
4616 1 24.008967445 4.4461050034 20.4520825886
4617 1 24.008967445 4.4461050034 24.008967445
4618 1 24.008967445 4.4461050034 27.5658501672
4619 1 24.008967445 4.4461050034 31.1227350235
4620 1 24.008967445 4.4461050034 34.6796198799
4621 1 24.008967445 8.0029887926 2.6676631087
4622 1 24.008967445 8.0029887926 6.224546898
4623 1 24.008967445 8.0029887926 9.7814312208
4624 1 24.008967445 8.0029887926 13.3383150101
4625 1 24.008967445 8.0029887926 16.8951987994
4626 1 24.008967445 8.0029887926 20.4520825886
4627 1 24.008967445 8.0029887926 24.008967445
4628 1 24.008967445 8.0029887926 27.5658501672
4629 1 24.008967445 8.0029887926 31.1227350235
4630 1 24.008967445 8.0029887926 34.6796198799
4631 1 24.008967445 11.5598725819 2.6676631087
4632 1 24.008967445 11.5598725819 6.224546898
4633 1 24.008967445 11.5598725819 9.7814312208
4634 1 24.008967445 11.5598725819 13.3383150101
4635 1 24.008967445 11.5598725819 16.8951987994
4636 1 24.008967445 11.5598725819 20.4520825886
4637 1 24.008967445 11.5598725819 24.008967445
4638 1 24.008967445 11.5598725819 27.5658501672
4639 1 24.008967445 11.5598725819 31.1227350235
4640 1 24.008967445 11.5598725819 34.6796198799
4641 1 24.008967445 15.1167574383 2.6676631087
4642 1 24.008967445 15.1167574383 6.224546898
4643 1 24.008967445 15.1167574383 9.7814312208
4644 1 24.008967445 15.1167574383 13.3383150101
4645 1 24.008967445 15.1167574383 16.8951987994
4646 1 24.008967445 15.1167574383 20.4520825886
4647 1 24.008967445 15.1167574383 24.008967445
4648 1 24.008967445 15.1167574383 27.5658501672
4649 1 24.008967445 15.1167574383 31.1227350235
4650 1 24.008967445 15.1167574383 34.6796198799
4651 1 24.008967445 18.6736401605 2.6676631087
4652 1 24.008967445 18.6736401605 6.224546898
4653 1 24.008967445 18.6736401605 9.7814312208
4654 1 24.008967445 18.6736401605 13.3383150101
4655 1 24.008967445 18.6736401605 16.8951987994
4656 1 24.008967445 18.6736401605 20.4520825886
4657 1 24.008967445 18.6736401605 24.008967445
4658 1 24.008967445 18.6736401605 27.5658501672
4659 1 24.008967445 18.6736401605 31.1227350235
4660 1 24.008967445 18.6736401605 34.6796198799
4661 1 24.008967445 22.2305250168 2.6676631087
4662 1 24.008967445 22.2305250168 6.224546898
4663 1 24.008967445 22.2305250168 9.7814312208
4664 1 24.008967445 22.2305250168 13.3383150101
4665 1 24.008967445 22.2305250168 16.8951987994
4666 1 24.008967445 22.2305250168 20.4520825886
4667 1 24.008967445 22.2305250168 24.008967445
4668 1 24.008967445 22.2305250168 27.5658501672
4669 1 24.008967445 22.2305250168 31.1227350235
4670 1 24.008967445 22.2305250168 34.6796198799
4671 1 24.008967445 25.7874098732 2.6676631087
4672 1 24.008967445 25.7874098732 6.224546898
4673 1 24.008967445 25.7874098732 9.7814312208
4674 1 24.008967445 25.7874098732 13.3383150101
4675 1 24.008967445 25.7874098732 16.8951987994
4676 1 24.008967445 25.7874098732 20.4520825886
4677 1 24.008967445 25.7874098732 24.008967445
4678 1 24.008967445 25.7874098732 27.5658501672
4679 1 24.008967445 25.7874098732 31.1227350235
4680 1 24.008967445 25.7874098732 34.6796198799
4681 1 24.008967445 29.3442925954 2.6676631087
4682 1 24.008967445 29.3442925954 6.224546898
4683 1 24.008967445 29.3442925954 9.7814312208
4684 1 24.008967445 29.3442925954 13.3383150101
4685 1 24.008967445 29.3442925954 16.8951987994
4686 1 24.008967445 29.3442925954 20.4520825886
4687 1 24.008967445 29.3442925954 24.008967445
4688 1 24.008967445 29.3442925954 27.5658501672
4689 1 24.008967445 29.3442925954 31.1227350235
4690 1 24.008967445 29.3442925954 34.6796198799
4691 1 24.008967445 32.9011774517 2.6676631087
4692 1 24.008967445 32.9011774517 6.224546898
4693 1 24.008967445 32.9011774517 9.7814312208
4694 1 24.008967445 32.9011774517 13.3383150101
4695 1 24.008967445 32.9011774517 16.8951987994
4696 1 24.008967445 32.9011774517 20.4520825886
4697 1 24.008967445 32.9011774517 24.008967445
4698 1 24.008967445 32.9011774517 27.5658501672
4699 1 24.008967445 32.9011774517 31.1227350235
4700 1 24.008967445 32.9011774517 34.6796198799
4701 1 27.5658501672 0.8892210007 2.6676631087
4702 1 27.5658501672 0.8892210007 6.224546898
4703 1 27.5658501672 0.8892210007 9.7814312208
4704 1 27.5658501672 0.8892210007 13.3383150101
4705 1 27.5658501672 0.8892210007 16.8951987994
4706 1 27.5658501672 0.8892210007 20.4520825886
4707 1 27.5658501672 0.8892210007 24.008967445
4708 1 27.5658501672 0.8892210007 27.5658501672
4709 1 27.5658501672 0.8892210007 31.1227350235
4710 1 27.5658501672 0.8892210007 34.6796198799
4711 1 27.5658501672 4.4461050034 2.6676631087
4712 1 27.5658501672 4.4461050034 6.224546898
4713 1 27.5658501672 4.4461050034 9.7814312208
4714 1 27.5658501672 4.4461050034 13.3383150101
4715 1 27.5658501672 4.4461050034 16.8951987994
4716 1 27.5658501672 4.4461050034 20.4520825886
4717 1 27.5658501672 4.4461050034 24.008967445
4718 1 27.5658501672 4.4461050034 27.5658501672
4719 1 27.5658501672 4.4461050034 31.1227350235
4720 1 27.5658501672 4.4461050034 34.6796198799
4721 1 27.5658501672 8.0029887926 2.6676631087
4722 1 27.5658501672 8.0029887926 6.224546898
4723 1 27.5658501672 8.0029887926 9.7814312208
4724 1 27.5658501672 8.0029887926 13.3383150101
4725 1 27.5658501672 8.0029887926 16.8951987994
4726 1 27.5658501672 8.0029887926 20.4520825886
4727 1 27.5658501672 8.0029887926 24.008967445
4728 1 27.5658501672 8.0029887926 27.5658501672
4729 1 27.5658501672 8.0029887926 31.1227350235
4730 1 27.5658501672 8.0029887926 34.6796198799
4731 1 27.5658501672 11.5598725819 2.6676631087
4732 1 27.5658501672 11.5598725819 6.224546898
4733 1 27.5658501672 11.5598725819 9.7814312208
4734 1 27.5658501672 11.5598725819 13.3383150101
4735 1 27.5658501672 11.5598725819 16.8951987994
4736 1 27.5658501672 11.5598725819 20.4520825886
4737 1 27.5658501672 11.5598725819 24.008967445
4738 1 27.5658501672 11.5598725819 27.5658501672
4739 1 27.5658501672 11.5598725819 31.1227350235
4740 1 27.5658501672 11.5598725819 34.6796198799
4741 1 27.5658501672 15.1167574383 2.6676631087
4742 1 27.5658501672 15.1167574383 6.224546898
4743 1 27.5658501672 15.1167574383 9.7814312208
4744 1 27.5658501672 15.1167574383 13.3383150101
4745 1 27.5658501672 15.1167574383 16.8951987994
4746 1 27.5658501672 15.1167574383 20.4520825886
4747 1 27.5658501672 15.1167574383 24.008967445
4748 1 27.5658501672 15.1167574383 27.5658501672
4749 1 27.5658501672 15.1167574383 31.1227350235
4750 1 27.5658501672 15.1167574383 34.6796198799
4751 1 27.5658501672 18.6736401605 2.6676631087
4752 1 27.5658501672 18.6736401605 6.224546898
4753 1 27.5658501672 18.6736401605 9.7814312208
4754 1 27.5658501672 18.6736401605 13.3383150101
4755 1 27.5658501672 18.6736401605 16.8951987994
4756 1 27.5658501672 18.6736401605 20.4520825886
4757 1 27.5658501672 18.6736401605 24.008967445
4758 1 27.5658501672 18.6736401605 27.5658501672
4759 1 27.5658501672 18.6736401605 31.1227350235
4760 1 27.5658501672 18.6736401605 34.6796198799
4761 1 27.5658501672 22.2305250168 2.6676631087
4762 1 27.5658501672 22.2305250168 6.224546898
4763 1 27.5658501672 22.2305250168 9.7814312208
4764 1 27.5658501672 22.2305250168 13.3383150101
4765 1 27.5658501672 22.2305250168 16.8951987994
4766 1 27.5658501672 22.2305250168 20.4520825886
4767 1 27.5658501672 22.2305250168 24.008967445
4768 1 27.5658501672 22.2305250168 27.5658501672
4769 1 27.5658501672 22.2305250168 31.1227350235
4770 1 27.5658501672 22.2305250168 34.6796198799
4771 1 27.5658501672 25.7874098732 2.6676631087
4772 1 27.5658501672 25.7874098732 6.224546898
4773 1 27.5658501672 25.7874098732 9.7814312208
4774 1 27.5658501672 25.7874098732 13.3383150101
4775 1 27.5658501672 25.7874098732 16.8951987994
4776 1 27.5658501672 25.7874098732 20.4520825886
4777 1 27.5658501672 25.7874098732 24.008967445
4778 1 27.5658501672 25.7874098732 27.5658501672
4779 1 27.5658501672 25.7874098732 31.1227350235
4780 1 27.5658501672 25.7874098732 34.6796198799
4781 1 27.5658501672 29.3442925954 2.6676631087
4782 1 27.5658501672 29.3442925954 6.224546898
4783 1 27.5658501672 29.3442925954 9.7814312208
4784 1 27.5658501672 29.3442925954 13.3383150101
4785 1 27.5658501672 29.3442925954 16.8951987994
4786 1 27.5658501672 29.3442925954 20.4520825886
4787 1 27.5658501672 29.3442925954 24.008967445
4788 1 27.5658501672 29.3442925954 27.5658501672
4789 1 27.5658501672 29.3442925954 31.1227350235
4790 1 27.5658501672 29.3442925954 34.6796198799
4791 1 27.5658501672 32.9011774517 2.6676631087
4792 1 27.5658501672 32.9011774517 6.224546898
4793 1 27.5658501672 32.9011774517 9.7814312208
4794 1 27.5658501672 32.9011774517 13.3383150101
4795 1 27.5658501672 32.9011774517 16.8951987994
4796 1 27.5658501672 32.9011774517 20.4520825886
4797 1 27.5658501672 32.9011774517 24.008967445
4798 1 27.5658501672 32.9011774517 27.5658501672
4799 1 27.5658501672 32.9011774517 31.1227350235
4800 1 27.5658501672 32.9011774517 34.6796198799
4801 1 31.1227350235 0.8892210007 2.6676631087
4802 1 31.1227350235 0.8892210007 6.224546898
4803 1 31.1227350235 0.8892210007 9.7814312208
4804 1 31.1227350235 0.8892210007 13.3383150101
4805 1 31.1227350235 0.8892210007 16.8951987994
4806 1 31.1227350235 0.8892210007 20.4520825886
4807 1 31.1227350235 0.8892210007 24.008967445
4808 1 31.1227350235 0.8892210007 27.5658501672
4809 1 31.1227350235 0.8892210007 31.1227350235
4810 1 31.1227350235 0.8892210007 34.6796198799
4811 1 31.1227350235 4.4461050034 2.6676631087
4812 1 31.1227350235 4.4461050034 6.224546898
4813 1 31.1227350235 4.4461050034 9.7814312208
4814 1 31.1227350235 4.4461050034 13.3383150101
4815 1 31.1227350235 4.4461050034 16.8951987994
4816 1 31.1227350235 4.4461050034 20.4520825886
4817 1 31.1227350235 4.4461050034 24.008967445
4818 1 31.1227350235 4.4461050034 27.5658501672
4819 1 31.1227350235 4.4461050034 31.1227350235
4820 1 31.1227350235 4.4461050034 34.6796198799
4821 1 31.1227350235 8.0029887926 2.6676631087
4822 1 31.1227350235 8.0029887926 6.224546898
4823 1 31.1227350235 8.0029887926 9.7814312208
4824 1 31.1227350235 8.0029887926 13.3383150101
4825 1 31.1227350235 8.0029887926 16.8951987994
4826 1 31.1227350235 8.0029887926 20.4520825886
4827 1 31.1227350235 8.0029887926 24.008967445
4828 1 31.1227350235 8.0029887926 27.5658501672
4829 1 31.1227350235 8.0029887926 31.1227350235
4830 1 31.1227350235 8.0029887926 34.6796198799
4831 1 31.1227350235 11.5598725819 2.6676631087
4832 1 31.1227350235 11.5598725819 6.224546898
4833 1 31.1227350235 11.5598725819 9.7814312208
4834 1 31.1227350235 11.5598725819 13.3383150101
4835 1 31.1227350235 11.5598725819 16.8951987994
4836 1 31.1227350235 11.5598725819 20.4520825886
4837 1 31.1227350235 11.5598725819 24.008967445
4838 1 31.1227350235 11.5598725819 27.5658501672
4839 1 31.1227350235 11.5598725819 31.1227350235
4840 1 31.1227350235 11.5598725819 34.6796198799
4841 1 31.1227350235 15.1167574383 2.6676631087
4842 1 31.1227350235 15.1167574383 6.224546898
4843 1 31.1227350235 15.1167574383 9.7814312208
4844 1 31.1227350235 15.1167574383 13.3383150101
4845 1 31.1227350235 15.1167574383 16.8951987994
4846 1 31.1227350235 15.1167574383 20.4520825886
4847 1 31.1227350235 15.1167574383 24.008967445
4848 1 31.1227350235 15.1167574383 27.5658501672
4849 1 31.1227350235 15.1167574383 31.1227350235
4850 1 31.1227350235 15.1167574383 34.6796198799
4851 1 31.1227350235 18.6736401605 2.6676631087
4852 1 31.1227350235 18.6736401605 6.224546898
4853 1 31.1227350235 18.6736401605 9.7814312208
4854 1 31.1227350235 18.6736401605 13.3383150101
4855 1 31.1227350235 18.6736401605 16.8951987994
4856 1 31.1227350235 18.6736401605 20.4520825886
4857 1 31.1227350235 18.6736401605 24.008967445
4858 1 31.1227350235 18.6736401605 27.5658501672
4859 1 31.1227350235 18.6736401605 31.1227350235
4860 1 31.1227350235 18.6736401605 34.6796198799
4861 1 31.1227350235 22.2305250168 2.6676631087
4862 1 31.1227350235 22.2305250168 6.224546898
4863 1 31.1227350235 22.2305250168 9.7814312208
4864 1 31.1227350235 22.2305250168 13.3383150101
4865 1 31.1227350235 22.2305250168 16.8951987994
4866 1 31.1227350235 22.2305250168 20.4520825886
4867 1 31.1227350235 22.2305250168 24.008967445
4868 1 31.1227350235 22.2305250168 27.5658501672
4869 1 31.1227350235 22.2305250168 31.1227350235
4870 1 31.1227350235 22.2305250168 34.6796198799
4871 1 31.1227350235 25.7874098732 2.6676631087
4872 1 31.1227350235 25.7874098732 6.224546898
4873 1 31.1227350235 25.7874098732 9.7814312208
4874 1 31.1227350235 25.7874098732 13.3383150101
4875 1 31.1227350235 25.7874098732 16.8951987994
4876 1 31.1227350235 25.7874098732 20.4520825886
4877 1 31.1227350235 25.7874098732 24.008967445
4878 1 31.1227350235 25.7874098732 27.5658501672
4879 1 31.1227350235 25.7874098732 31.1227350235
4880 1 31.1227350235 25.7874098732 34.6796198799
4881 1 31.1227350235 29.3442925954 2.6676631087
4882 1 31.1227350235 29.3442925954 6.224546898
4883 1 31.1227350235 29.3442925954 9.7814312208
4884 1 31.1227350235 29.3442925954 13.3383150101
4885 1 31.1227350235 29.3442925954 16.8951987994
4886 1 31.1227350235 29.3442925954 20.4520825886
4887 1 31.1227350235 29.3442925954 24.008967445
4888 1 31.1227350235 29.3442925954 27.5658501672
4889 1 31.1227350235 29.3442925954 31.1227350235
4890 1 31.1227350235 29.3442925954 34.6796198799
4891 1 31.1227350235 32.9011774517 2.6676631087
4892 1 31.1227350235 32.9011774517 6.224546898
4893 1 31.1227350235 32.9011774517 9.7814312208
4894 1 31.1227350235 32.9011774517 13.3383150101
4895 1 31.1227350235 32.9011774517 16.8951987994
4896 1 31.1227350235 32.9011774517 20.4520825886
4897 1 31.1227350235 32.9011774517 24.008967445
4898 1 31.1227350235 32.9011774517 27.5658501672
4899 1 31.1227350235 32.9011774517 31.1227350235
4900 1 31.1227350235 32.9011774517 34.6796198799
4901 1 34.6796198799 0.8892210007 2.6676631087
4902 1 34.6796198799 0.8892210007 6.224546898
4903 1 34.6796198799 0.8892210007 9.7814312208
4904 1 34.6796198799 0.8892210007 13.3383150101
4905 1 34.6796198799 0.8892210007 16.8951987994
4906 1 34.6796198799 0.8892210007 20.4520825886
4907 1 34.6796198799 0.8892210007 24.008967445
4908 1 34.6796198799 0.8892210007 27.5658501672
4909 1 34.6796198799 0.8892210007 31.1227350235
4910 1 34.6796198799 0.8892210007 34.6796198799
4911 1 34.6796198799 4.4461050034 2.6676631087
4912 1 34.6796198799 4.4461050034 6.224546898
4913 1 34.6796198799 4.4461050034 9.7814312208
4914 1 34.6796198799 4.4461050034 13.3383150101
4915 1 34.6796198799 4.4461050034 16.8951987994
4916 1 34.6796198799 4.4461050034 20.4520825886
4917 1 34.6796198799 4.4461050034 24.008967445
4918 1 34.6796198799 4.4461050034 27.5658501672
4919 1 34.6796198799 4.4461050034 31.1227350235
4920 1 34.6796198799 4.4461050034 34.6796198799
4921 1 34.6796198799 8.0029887926 2.6676631087
4922 1 34.6796198799 8.0029887926 6.224546898
4923 1 34.6796198799 8.0029887926 9.7814312208
4924 1 34.6796198799 8.0029887926 13.3383150101
4925 1 34.6796198799 8.0029887926 16.8951987994
4926 1 34.6796198799 8.0029887926 20.4520825886
4927 1 34.6796198799 8.0029887926 24.008967445
4928 1 34.6796198799 8.0029887926 27.5658501672
4929 1 34.6796198799 8.0029887926 31.1227350235
4930 1 34.6796198799 8.0029887926 34.6796198799
4931 1 34.6796198799 11.5598725819 2.6676631087
4932 1 34.6796198799 11.5598725819 6.224546898
4933 1 34.6796198799 11.5598725819 9.7814312208
4934 1 34.6796198799 11.5598725819 13.3383150101
4935 1 34.6796198799 11.5598725819 16.8951987994
4936 1 34.6796198799 11.5598725819 20.4520825886
4937 1 34.6796198799 11.5598725819 24.008967445
4938 1 34.6796198799 11.5598725819 27.5658501672
4939 1 34.6796198799 11.5598725819 31.1227350235
4940 1 34.6796198799 11.5598725819 34.6796198799
4941 1 34.6796198799 15.1167574383 2.6676631087
4942 1 34.6796198799 15.1167574383 6.224546898
4943 1 34.6796198799 15.1167574383 9.7814312208
4944 1 34.6796198799 15.1167574383 13.3383150101
4945 1 34.6796198799 15.1167574383 16.8951987994
4946 1 34.6796198799 15.1167574383 20.4520825886
4947 1 34.6796198799 15.1167574383 24.008967445
4948 1 34.6796198799 15.1167574383 27.5658501672
4949 1 34.6796198799 15.1167574383 31.1227350235
4950 1 34.6796198799 15.1167574383 34.6796198799
4951 1 34.6796198799 18.6736401605 2.6676631087
4952 1 34.6796198799 18.6736401605 6.224546898
4953 1 34.6796198799 18.6736401605 9.7814312208
4954 1 34.6796198799 18.6736401605 13.3383150101
4955 1 34.6796198799 18.6736401605 16.8951987994
4956 1 34.6796198799 18.6736401605 20.4520825886
4957 1 34.6796198799 18.6736401605 24.008967445
4958 1 34.6796198799 18.6736401605 27.5658501672
4959 1 34.6796198799 18.6736401605 31.1227350235
4960 1 34.6796198799 18.6736401605 34.6796198799
4961 1 34.6796198799 22.2305250168 2.6676631087
4962 1 34.6796198799 22.2305250168 6.224546898
4963 1 34.6796198799 22.2305250168 9.7814312208
4964 1 34.6796198799 22.2305250168 13.3383150101
4965 1 34.6796198799 22.2305250168 16.8951987994
4966 1 34.6796198799 22.2305250168 20.4520825886
4967 1 34.6796198799 22.2305250168 24.008967445
4968 1 34.6796198799 22.2305250168 27.5658501672
4969 1 34.6796198799 22.2305250168 31.1227350235
4970 1 34.6796198799 22.2305250168 34.6796198799
4971 1 34.6796198799 25.7874098732 2.6676631087
4972 1 34.6796198799 25.7874098732 6.224546898
4973 1 34.6796198799 25.7874098732 9.7814312208
4974 1 34.6796198799 25.7874098732 13.3383150101
4975 1 34.6796198799 25.7874098732 16.8951987994
4976 1 34.6796198799 25.7874098732 20.4520825886
4977 1 34.6796198799 25.7874098732 24.008967445
4978 1 34.6796198799 25.7874098732 27.5658501672
4979 1 34.6796198799 25.7874098732 31.1227350235
4980 1 34.6796198799 25.7874098732 34.6796198799
4981 1 34.6796198799 29.3442925954 2.6676631087
4982 1 34.6796198799 29.3442925954 6.224546898
4983 1 34.6796198799 29.3442925954 9.7814312208
4984 1 34.6796198799 29.3442925954 13.3383150101
4985 1 34.6796198799 29.3442925954 16.8951987994
4986 1 34.6796198799 29.3442925954 20.4520825886
4987 1 34.6796198799 29.3442925954 24.008967445
4988 1 34.6796198799 29.3442925954 27.5658501672
4989 1 34.6796198799 29.3442925954 31.1227350235
4990 1 34.6796198799 29.3442925954 34.6796198799
4991 1 34.6796198799 32.9011774517 2.6676631087
4992 1 34.6796198799 32.9011774517 6.224546898
4993 1 34.6796198799 32.9011774517 9.7814312208
4994 1 34.6796198799 32.9011774517 13.3383150101
4995 1 34.6796198799 32.9011774517 16.8951987994
4996 1 34.6796198799 32.9011774517 20.4520825886
4997 1 34.6796198799 32.9011774517 24.008967445
4998 1 34.6796198799 32.9011774517 27.5658501672
4999 1 34.6796198799 32.9011774517 31.1227350235
5000 1 34.6796198799 32.9011774517 34.6796198799
5001 1 0.8892210007 0.8892210007 0.8892210007
5002 1 0.8892210007 0.8892210007 4.4461050034
5003 1 0.8892210007 0.8892210007 8.0029887926
5004 1 0.8892210007 0.8892210007 11.5598725819
5005 1 0.8892210007 0.8892210007 15.1167574383
5006 1 0.8892210007 0.8892210007 18.6736401605
5007 1 0.8892210007 0.8892210007 22.2305250168
5008 1 0.8892210007 0.8892210007 25.7874098732
5009 1 0.8892210007 0.8892210007 29.3442925954
5010 1 0.8892210007 0.8892210007 32.9011774517
5011 1 0.8892210007 4.4461050034 0.8892210007
5012 1 0.8892210007 4.4461050034 4.4461050034
5013 1 0.8892210007 4.4461050034 8.0029887926
5014 1 0.8892210007 4.4461050034 11.5598725819
5015 1 0.8892210007 4.4461050034 15.1167574383
5016 1 0.8892210007 4.4461050034 18.6736401605
5017 1 0.8892210007 4.4461050034 22.2305250168
5018 1 0.8892210007 4.4461050034 25.7874098732
5019 1 0.8892210007 4.4461050034 29.3442925954
5020 1 0.8892210007 4.4461050034 32.9011774517
5021 1 0.8892210007 8.0029887926 0.8892210007
5022 1 0.8892210007 8.0029887926 4.4461050034
5023 1 0.8892210007 8.0029887926 8.0029887926
5024 1 0.8892210007 8.0029887926 11.5598725819
5025 1 0.8892210007 8.0029887926 15.1167574383
5026 1 0.8892210007 8.0029887926 18.6736401605
5027 1 0.8892210007 8.0029887926 22.2305250168
5028 1 0.8892210007 8.0029887926 25.7874098732
5029 1 0.8892210007 8.0029887926 29.3442925954
5030 1 0.8892210007 8.0029887926 32.9011774517
5031 1 0.8892210007 11.5598725819 0.8892210007
5032 1 0.8892210007 11.5598725819 4.4461050034
5033 1 0.8892210007 11.5598725819 8.0029887926
5034 1 0.8892210007 11.5598725819 11.5598725819
5035 1 0.8892210007 11.5598725819 15.1167574383
5036 1 0.8892210007 11.5598725819 18.6736401605
5037 1 0.8892210007 11.5598725819 22.2305250168
5038 1 0.8892210007 11.5598725819 25.7874098732
5039 1 0.8892210007 11.5598725819 29.3442925954
5040 1 0.8892210007 11.5598725819 32.9011774517
5041 1 0.8892210007 15.1167574383 0.8892210007
5042 1 0.8892210007 15.1167574383 4.4461050034
5043 1 0.8892210007 15.1167574383 8.0029887926
5044 1 0.8892210007 15.1167574383 11.5598725819
5045 1 0.8892210007 15.1167574383 15.1167574383
5046 1 0.8892210007 15.1167574383 18.6736401605
5047 1 0.8892210007 15.1167574383 22.2305250168
5048 1 0.8892210007 15.1167574383 25.7874098732
5049 1 0.8892210007 15.1167574383 29.3442925954
5050 1 0.8892210007 15.1167574383 32.9011774517
5051 1 0.8892210007 18.6736401605 0.8892210007
5052 1 0.8892210007 18.6736401605 4.4461050034
5053 1 0.8892210007 18.6736401605 8.0029887926
5054 1 0.8892210007 18.6736401605 11.5598725819
5055 1 0.8892210007 18.6736401605 15.1167574383
5056 1 0.8892210007 18.6736401605 18.6736401605
5057 1 0.8892210007 18.6736401605 22.2305250168
5058 1 0.8892210007 18.6736401605 25.7874098732
5059 1 0.8892210007 18.6736401605 29.3442925954
5060 1 0.8892210007 18.6736401605 32.9011774517
5061 1 0.8892210007 22.2305250168 0.8892210007
5062 1 0.8892210007 22.2305250168 4.4461050034
5063 1 0.8892210007 22.2305250168 8.0029887926
5064 1 0.8892210007 22.2305250168 11.5598725819
5065 1 0.8892210007 22.2305250168 15.1167574383
5066 1 0.8892210007 22.2305250168 18.6736401605
5067 1 0.8892210007 22.2305250168 22.2305250168
5068 1 0.8892210007 22.2305250168 25.7874098732
5069 1 0.8892210007 22.2305250168 29.3442925954
5070 1 0.8892210007 22.2305250168 32.9011774517
5071 1 0.8892210007 25.7874098732 0.8892210007
5072 1 0.8892210007 25.7874098732 4.4461050034
5073 1 0.8892210007 25.7874098732 8.0029887926
5074 1 0.8892210007 25.7874098732 11.5598725819
5075 1 0.8892210007 25.7874098732 15.1167574383
5076 1 0.8892210007 25.7874098732 18.6736401605
5077 1 0.8892210007 25.7874098732 22.2305250168
5078 1 0.8892210007 25.7874098732 25.7874098732
5079 1 0.8892210007 25.7874098732 29.3442925954
5080 1 0.8892210007 25.7874098732 32.9011774517
5081 1 0.8892210007 29.3442925954 0.8892210007
5082 1 0.8892210007 29.3442925954 4.4461050034
5083 1 0.8892210007 29.3442925954 8.0029887926
5084 1 0.8892210007 29.3442925954 11.5598725819
5085 1 0.8892210007 29.3442925954 15.1167574383
5086 1 0.8892210007 29.3442925954 18.6736401605
5087 1 0.8892210007 29.3442925954 22.2305250168
5088 1 0.8892210007 29.3442925954 25.7874098732
5089 1 0.8892210007 29.3442925954 29.3442925954
5090 1 0.8892210007 29.3442925954 32.9011774517
5091 1 0.8892210007 32.9011774517 0.8892210007
5092 1 0.8892210007 32.9011774517 4.4461050034
5093 1 0.8892210007 32.9011774517 8.0029887926
5094 1 0.8892210007 32.9011774517 11.5598725819
5095 1 0.8892210007 32.9011774517 15.1167574383
5096 1 0.8892210007 32.9011774517 18.6736401605
5097 1 0.8892210007 32.9011774517 22.2305250168
5098 1 0.8892210007 32.9011774517 25.7874098732
5099 1 0.8892210007 32.9011774517 29.3442925954
5100 1 0.8892210007 32.9011774517 32.9011774517
5101 1 4.4461050034 0.8892210007 0.8892210007
5102 1 4.4461050034 0.8892210007 4.4461050034
5103 1 4.4461050034 0.8892210007 8.0029887926
5104 1 4.4461050034 0.8892210007 11.5598725819
5105 1 4.4461050034 0.8892210007 15.1167574383
5106 1 4.4461050034 0.8892210007 18.6736401605
5107 1 4.4461050034 0.8892210007 22.2305250168
5108 1 4.4461050034 0.8892210007 25.7874098732
5109 1 4.4461050034 0.8892210007 29.3442925954
5110 1 4.4461050034 0.8892210007 32.9011774517
5111 1 4.4461050034 4.4461050034 0.8892210007
5112 1 4.4461050034 4.4461050034 4.4461050034
5113 1 4.4461050034 4.4461050034 8.0029887926
5114 1 4.4461050034 4.4461050034 11.5598725819
5115 1 4.4461050034 4.4461050034 15.1167574383
5116 1 4.4461050034 4.4461050034 18.6736401605
5117 1 4.4461050034 4.4461050034 22.2305250168
5118 1 4.4461050034 4.4461050034 25.7874098732
5119 1 4.4461050034 4.4461050034 29.3442925954
5120 1 4.4461050034 4.4461050034 32.9011774517
5121 1 4.4461050034 8.0029887926 0.8892210007
5122 1 4.4461050034 8.0029887926 4.4461050034
5123 1 4.4461050034 8.0029887926 8.0029887926
5124 1 4.4461050034 8.0029887926 11.5598725819
5125 1 4.4461050034 8.0029887926 15.1167574383
5126 1 4.4461050034 8.0029887926 18.6736401605
5127 1 4.4461050034 8.0029887926 22.2305250168
5128 1 4.4461050034 8.0029887926 25.7874098732
5129 1 4.4461050034 8.0029887926 29.3442925954
5130 1 4.4461050034 8.0029887926 32.9011774517
5131 1 4.4461050034 11.5598725819 0.8892210007
5132 1 4.4461050034 11.5598725819 4.4461050034
5133 1 4.4461050034 11.5598725819 8.0029887926
5134 1 4.4461050034 11.5598725819 11.5598725819
5135 1 4.4461050034 11.5598725819 15.1167574383
5136 1 4.4461050034 11.5598725819 18.6736401605
5137 1 4.4461050034 11.5598725819 22.2305250168
5138 1 4.4461050034 11.5598725819 25.7874098732
5139 1 4.4461050034 11.5598725819 29.3442925954
5140 1 4.4461050034 11.5598725819 32.9011774517
5141 1 4.4461050034 15.1167574383 0.8892210007
5142 1 4.4461050034 15.1167574383 4.4461050034
5143 1 4.4461050034 15.1167574383 8.0029887926
5144 1 4.4461050034 15.1167574383 11.5598725819
5145 1 4.4461050034 15.1167574383 15.1167574383
5146 1 4.4461050034 15.1167574383 18.6736401605
5147 1 4.4461050034 15.1167574383 22.2305250168
5148 1 4.4461050034 15.1167574383 25.7874098732
5149 1 4.4461050034 15.1167574383 29.3442925954
5150 1 4.4461050034 15.1167574383 32.9011774517
5151 1 4.4461050034 18.6736401605 0.8892210007
5152 1 4.4461050034 18.6736401605 4.4461050034
5153 1 4.4461050034 18.6736401605 8.0029887926
5154 1 4.4461050034 18.6736401605 11.5598725819
5155 1 4.4461050034 18.6736401605 15.1167574383
5156 1 4.4461050034 18.6736401605 18.6736401605
5157 1 4.4461050034 18.6736401605 22.2305250168
5158 1 4.4461050034 18.6736401605 25.7874098732
5159 1 4.4461050034 18.6736401605 29.3442925954
5160 1 4.4461050034 18.6736401605 32.9011774517
5161 1 4.4461050034 22.2305250168 0.8892210007
5162 1 4.4461050034 22.2305250168 4.4461050034
5163 1 4.4461050034 22.2305250168 8.0029887926
5164 1 4.4461050034 22.2305250168 11.5598725819
5165 1 4.4461050034 22.2305250168 15.1167574383
5166 1 4.4461050034 22.2305250168 18.6736401605
5167 1 4.4461050034 22.2305250168 22.2305250168
5168 1 4.4461050034 22.2305250168 25.7874098732
5169 1 4.4461050034 22.2305250168 29.3442925954
5170 1 4.4461050034 22.2305250168 32.9011774517
5171 1 4.4461050034 25.7874098732 0.8892210007
5172 1 4.4461050034 25.7874098732 4.4461050034
5173 1 4.4461050034 25.7874098732 8.0029887926
5174 1 4.4461050034 25.7874098732 11.5598725819
5175 1 4.4461050034 25.7874098732 15.1167574383
5176 1 4.4461050034 25.7874098732 18.6736401605
5177 1 4.4461050034 25.7874098732 22.2305250168
5178 1 4.4461050034 25.7874098732 25.7874098732
5179 1 4.4461050034 25.7874098732 29.3442925954
5180 1 4.4461050034 25.7874098732 32.9011774517
5181 1 4.4461050034 29.3442925954 0.8892210007
5182 1 4.4461050034 29.3442925954 4.4461050034
5183 1 4.4461050034 29.3442925954 8.0029887926
5184 1 4.4461050034 29.3442925954 11.5598725819
5185 1 4.4461050034 29.3442925954 15.1167574383
5186 1 4.4461050034 29.3442925954 18.6736401605
5187 1 4.4461050034 29.3442925954 22.2305250168
5188 1 4.4461050034 29.3442925954 25.7874098732
5189 1 4.4461050034 29.3442925954 29.3442925954
5190 1 4.4461050034 29.3442925954 32.9011774517
5191 1 4.4461050034 32.9011774517 0.8892210007
5192 1 4.4461050034 32.9011774517 4.4461050034
5193 1 4.4461050034 32.9011774517 8.0029887926
5194 1 4.4461050034 32.9011774517 11.5598725819
5195 1 4.4461050034 32.9011774517 15.1167574383
5196 1 4.4461050034 32.9011774517 18.6736401605
5197 1 4.4461050034 32.9011774517 22.2305250168
5198 1 4.4461050034 32.9011774517 25.7874098732
5199 1 4.4461050034 32.9011774517 29.3442925954
5200 1 4.4461050034 32.9011774517 32.9011774517
5201 1 8.0029887926 0.8892210007 0.8892210007
5202 1 8.0029887926 0.8892210007 4.4461050034
5203 1 8.0029887926 0.8892210007 8.0029887926
5204 1 8.0029887926 0.8892210007 11.5598725819
5205 1 8.0029887926 0.8892210007 15.1167574383
5206 1 8.0029887926 0.8892210007 18.6736401605
5207 1 8.0029887926 0.8892210007 22.2305250168
5208 1 8.0029887926 0.8892210007 25.7874098732
5209 1 8.0029887926 0.8892210007 29.3442925954
5210 1 8.0029887926 0.8892210007 32.9011774517
5211 1 8.0029887926 4.4461050034 0.8892210007
5212 1 8.0029887926 4.4461050034 4.4461050034
5213 1 8.0029887926 4.4461050034 8.0029887926
5214 1 8.0029887926 4.4461050034 11.5598725819
5215 1 8.0029887926 4.4461050034 15.1167574383
5216 1 8.0029887926 4.4461050034 18.6736401605
5217 1 8.0029887926 4.4461050034 22.2305250168
5218 1 8.0029887926 4.4461050034 25.7874098732
5219 1 8.0029887926 4.4461050034 29.3442925954
5220 1 8.0029887926 4.4461050034 32.9011774517
5221 1 8.0029887926 8.0029887926 0.8892210007
5222 1 8.0029887926 8.0029887926 4.4461050034
5223 1 8.0029887926 8.0029887926 8.0029887926
5224 1 8.0029887926 8.0029887926 11.5598725819
5225 1 8.0029887926 8.0029887926 15.1167574383
5226 1 8.0029887926 8.0029887926 18.6736401605
5227 1 8.0029887926 8.0029887926 22.2305250168
5228 1 8.0029887926 8.0029887926 25.7874098732
5229 1 8.0029887926 8.0029887926 29.3442925954
5230 1 8.0029887926 8.0029887926 32.9011774517
5231 1 8.0029887926 11.5598725819 0.8892210007
5232 1 8.0029887926 11.5598725819 4.4461050034
5233 1 8.0029887926 11.5598725819 8.0029887926
5234 1 8.0029887926 11.5598725819 11.5598725819
5235 1 8.0029887926 11.5598725819 15.1167574383
5236 1 8.0029887926 11.5598725819 18.6736401605
5237 1 8.0029887926 11.5598725819 22.2305250168
5238 1 8.0029887926 11.5598725819 25.7874098732
5239 1 8.0029887926 11.5598725819 29.3442925954
5240 1 8.0029887926 11.5598725819 32.9011774517
5241 1 8.0029887926 15.1167574383 0.8892210007
5242 1 8.0029887926 15.1167574383 4.4461050034
5243 1 8.0029887926 15.1167574383 8.0029887926
5244 1 8.0029887926 15.1167574383 11.5598725819
5245 1 8.0029887926 15.1167574383 15.1167574383
5246 1 8.0029887926 15.1167574383 18.6736401605
5247 1 8.0029887926 15.1167574383 22.2305250168
5248 1 8.0029887926 15.1167574383 25.7874098732
5249 1 8.0029887926 15.1167574383 29.3442925954
5250 1 8.0029887926 15.1167574383 32.9011774517
5251 1 8.0029887926 18.6736401605 0.8892210007
5252 1 8.0029887926 18.6736401605 4.4461050034
5253 1 8.0029887926 18.6736401605 8.0029887926
5254 1 8.0029887926 18.6736401605 11.5598725819
5255 1 8.0029887926 18.6736401605 15.1167574383
5256 1 8.0029887926 18.6736401605 18.6736401605
5257 1 8.0029887926 18.6736401605 22.2305250168
5258 1 8.0029887926 18.6736401605 25.7874098732
5259 1 8.0029887926 18.6736401605 29.3442925954
5260 1 8.0029887926 18.6736401605 32.9011774517
5261 1 8.0029887926 22.2305250168 0.8892210007
5262 1 8.0029887926 22.2305250168 4.4461050034
5263 1 8.0029887926 22.2305250168 8.0029887926
5264 1 8.0029887926 22.2305250168 11.5598725819
5265 1 8.0029887926 22.2305250168 15.1167574383
5266 1 8.0029887926 22.2305250168 18.6736401605
5267 1 8.0029887926 22.2305250168 22.2305250168
5268 1 8.0029887926 22.2305250168 25.7874098732
5269 1 8.0029887926 22.2305250168 29.3442925954
5270 1 8.0029887926 22.2305250168 32.9011774517
5271 1 8.0029887926 25.7874098732 0.8892210007
5272 1 8.0029887926 25.7874098732 4.4461050034
5273 1 8.0029887926 25.7874098732 8.0029887926
5274 1 8.0029887926 25.7874098732 11.5598725819
5275 1 8.0029887926 25.7874098732 15.1167574383
5276 1 8.0029887926 25.7874098732 18.6736401605
5277 1 8.0029887926 25.7874098732 22.2305250168
5278 1 8.0029887926 25.7874098732 25.7874098732
5279 1 8.0029887926 25.7874098732 29.3442925954
5280 1 8.0029887926 25.7874098732 32.9011774517
5281 1 8.0029887926 29.3442925954 0.8892210007
5282 1 8.0029887926 29.3442925954 4.4461050034
5283 1 8.0029887926 29.3442925954 8.0029887926
5284 1 8.0029887926 29.3442925954 11.5598725819
5285 1 8.0029887926 29.3442925954 15.1167574383
5286 1 8.0029887926 29.3442925954 18.6736401605
5287 1 8.0029887926 29.3442925954 22.2305250168
5288 1 8.0029887926 29.3442925954 25.7874098732
5289 1 8.0029887926 29.3442925954 29.3442925954
5290 1 8.0029887926 29.3442925954 32.9011774517
5291 1 8.0029887926 32.9011774517 0.8892210007
5292 1 8.0029887926 32.9011774517 4.4461050034
5293 1 8.0029887926 32.9011774517 8.0029887926
5294 1 8.0029887926 32.9011774517 11.5598725819
5295 1 8.0029887926 32.9011774517 15.1167574383
5296 1 8.0029887926 32.9011774517 18.6736401605
5297 1 8.0029887926 32.9011774517 22.2305250168
5298 1 8.0029887926 32.9011774517 25.7874098732
5299 1 8.0029887926 32.9011774517 29.3442925954
5300 1 8.0029887926 32.9011774517 32.9011774517
5301 1 11.5598725819 0.8892210007 0.8892210007
5302 1 11.5598725819 0.8892210007 4.4461050034
5303 1 11.5598725819 0.8892210007 8.0029887926
5304 1 11.5598725819 0.8892210007 11.5598725819
5305 1 11.5598725819 0.8892210007 15.1167574383
5306 1 11.5598725819 0.8892210007 18.6736401605
5307 1 11.5598725819 0.8892210007 22.2305250168
5308 1 11.5598725819 0.8892210007 25.7874098732
5309 1 11.5598725819 0.8892210007 29.3442925954
5310 1 11.5598725819 0.8892210007 32.9011774517
5311 1 11.5598725819 4.4461050034 0.8892210007
5312 1 11.5598725819 4.4461050034 4.4461050034
5313 1 11.5598725819 4.4461050034 8.0029887926
5314 1 11.5598725819 4.4461050034 11.5598725819
5315 1 11.5598725819 4.4461050034 15.1167574383
5316 1 11.5598725819 4.4461050034 18.6736401605
5317 1 11.5598725819 4.4461050034 22.2305250168
5318 1 11.5598725819 4.4461050034 25.7874098732
5319 1 11.5598725819 4.4461050034 29.3442925954
5320 1 11.5598725819 4.4461050034 32.9011774517
5321 1 11.5598725819 8.0029887926 0.8892210007
5322 1 11.5598725819 8.0029887926 4.4461050034
5323 1 11.5598725819 8.0029887926 8.0029887926
5324 1 11.5598725819 8.0029887926 11.5598725819
5325 1 11.5598725819 8.0029887926 15.1167574383
5326 1 11.5598725819 8.0029887926 18.6736401605
5327 1 11.5598725819 8.0029887926 22.2305250168
5328 1 11.5598725819 8.0029887926 25.7874098732
5329 1 11.5598725819 8.0029887926 29.3442925954
5330 1 11.5598725819 8.0029887926 32.9011774517
5331 1 11.5598725819 11.5598725819 0.8892210007
5332 1 11.5598725819 11.5598725819 4.4461050034
5333 1 11.5598725819 11.5598725819 8.0029887926
5334 1 11.5598725819 11.5598725819 11.5598725819
5335 1 11.5598725819 11.5598725819 15.1167574383
5336 1 11.5598725819 11.5598725819 18.6736401605
5337 1 11.5598725819 11.5598725819 22.2305250168
5338 1 11.5598725819 11.5598725819 25.7874098732
5339 1 11.5598725819 11.5598725819 29.3442925954
5340 1 11.5598725819 11.5598725819 32.9011774517
5341 1 11.5598725819 15.1167574383 0.8892210007
5342 1 11.5598725819 15.1167574383 4.4461050034
5343 1 11.5598725819 15.1167574383 8.0029887926
5344 1 11.5598725819 15.1167574383 11.5598725819
5345 1 11.5598725819 15.1167574383 15.1167574383
5346 1 11.5598725819 15.1167574383 18.6736401605
5347 1 11.5598725819 15.1167574383 22.2305250168
5348 1 11.5598725819 15.1167574383 25.7874098732
5349 1 11.5598725819 15.1167574383 29.3442925954
5350 1 11.5598725819 15.1167574383 32.9011774517
5351 1 11.5598725819 18.6736401605 0.8892210007
5352 1 11.5598725819 18.6736401605 4.4461050034
5353 1 11.5598725819 18.6736401605 8.0029887926
5354 1 11.5598725819 18.6736401605 11.5598725819
5355 1 11.5598725819 18.6736401605 15.1167574383
5356 1 11.5598725819 18.6736401605 18.6736401605
5357 1 11.5598725819 18.6736401605 22.2305250168
5358 1 11.5598725819 18.6736401605 25.7874098732
5359 1 11.5598725819 18.6736401605 29.3442925954
5360 1 11.5598725819 18.6736401605 32.9011774517
5361 1 11.5598725819 22.2305250168 0.8892210007
5362 1 11.5598725819 22.2305250168 4.4461050034
5363 1 11.5598725819 22.2305250168 8.0029887926
5364 1 11.5598725819 22.2305250168 11.5598725819
5365 1 11.5598725819 22.2305250168 15.1167574383
5366 1 11.5598725819 22.2305250168 18.6736401605
5367 1 11.5598725819 22.2305250168 22.2305250168
5368 1 11.5598725819 22.2305250168 25.7874098732
5369 1 11.5598725819 22.2305250168 29.3442925954
5370 1 11.5598725819 22.2305250168 32.9011774517
5371 1 11.5598725819 25.7874098732 0.8892210007
5372 1 11.5598725819 25.7874098732 4.4461050034
5373 1 11.5598725819 25.7874098732 8.0029887926
5374 1 11.5598725819 25.7874098732 11.5598725819
5375 1 11.5598725819 25.7874098732 15.1167574383
5376 1 11.5598725819 25.7874098732 18.6736401605
5377 1 11.5598725819 25.7874098732 22.2305250168
5378 1 11.5598725819 25.7874098732 25.7874098732
5379 1 11.5598725819 25.7874098732 29.3442925954
5380 1 11.5598725819 25.7874098732 32.9011774517
5381 1 11.5598725819 29.3442925954 0.8892210007
5382 1 11.5598725819 29.3442925954 4.4461050034
5383 1 11.5598725819 29.3442925954 8.0029887926
5384 1 11.5598725819 29.3442925954 11.5598725819
5385 1 11.5598725819 29.3442925954 15.1167574383
5386 1 11.5598725819 29.3442925954 18.6736401605
5387 1 11.5598725819 29.3442925954 22.2305250168
5388 1 11.5598725819 29.3442925954 25.7874098732
5389 1 11.5598725819 29.3442925954 29.3442925954
5390 1 11.5598725819 29.3442925954 32.9011774517
5391 1 11.5598725819 32.9011774517 0.8892210007
5392 1 11.5598725819 32.9011774517 4.4461050034
5393 1 11.5598725819 32.9011774517 8.0029887926
5394 1 11.5598725819 32.9011774517 11.5598725819
5395 1 11.5598725819 32.9011774517 15.1167574383
5396 1 11.5598725819 32.9011774517 18.6736401605
5397 1 11.5598725819 32.9011774517 22.2305250168
5398 1 11.5598725819 32.9011774517 25.7874098732
5399 1 11.5598725819 32.9011774517 29.3442925954
5400 1 11.5598725819 32.9011774517 32.9011774517
5401 1 15.1167574383 0.8892210007 0.8892210007
5402 1 15.1167574383 0.8892210007 4.4461050034
5403 1 15.1167574383 0.8892210007 8.0029887926
5404 1 15.1167574383 0.8892210007 11.5598725819
5405 1 15.1167574383 0.8892210007 15.1167574383
5406 1 15.1167574383 0.8892210007 18.6736401605
5407 1 15.1167574383 0.8892210007 22.2305250168
5408 1 15.1167574383 0.8892210007 25.7874098732
5409 1 15.1167574383 0.8892210007 29.3442925954
5410 1 15.1167574383 0.8892210007 32.9011774517
5411 1 15.1167574383 4.4461050034 0.8892210007
5412 1 15.1167574383 4.4461050034 4.4461050034
5413 1 15.1167574383 4.4461050034 8.0029887926
5414 1 15.1167574383 4.4461050034 11.5598725819
5415 1 15.1167574383 4.4461050034 15.1167574383
5416 1 15.1167574383 4.4461050034 18.6736401605
5417 1 15.1167574383 4.4461050034 22.2305250168
5418 1 15.1167574383 4.4461050034 25.7874098732
5419 1 15.1167574383 4.4461050034 29.3442925954
5420 1 15.1167574383 4.4461050034 32.9011774517
5421 1 15.1167574383 8.0029887926 0.8892210007
5422 1 15.1167574383 8.0029887926 4.4461050034
5423 1 15.1167574383 8.0029887926 8.0029887926
5424 1 15.1167574383 8.0029887926 11.5598725819
5425 1 15.1167574383 8.0029887926 15.1167574383
5426 1 15.1167574383 8.0029887926 18.6736401605
5427 1 15.1167574383 8.0029887926 22.2305250168
5428 1 15.1167574383 8.0029887926 25.7874098732
5429 1 15.1167574383 8.0029887926 29.3442925954
5430 1 15.1167574383 8.0029887926 32.9011774517
5431 1 15.1167574383 11.5598725819 0.8892210007
5432 1 15.1167574383 11.5598725819 4.4461050034
5433 1 15.1167574383 11.5598725819 8.0029887926
5434 1 15.1167574383 11.5598725819 11.5598725819
5435 1 15.1167574383 11.5598725819 15.1167574383
5436 1 15.1167574383 11.5598725819 18.6736401605
5437 1 15.1167574383 11.5598725819 22.2305250168
5438 1 15.1167574383 11.5598725819 25.7874098732
5439 1 15.1167574383 11.5598725819 29.3442925954
5440 1 15.1167574383 11.5598725819 32.9011774517
5441 1 15.1167574383 15.1167574383 0.8892210007
5442 1 15.1167574383 15.1167574383 4.4461050034
5443 1 15.1167574383 15.1167574383 8.0029887926
5444 1 15.1167574383 15.1167574383 11.5598725819
5445 1 15.1167574383 15.1167574383 15.1167574383
5446 1 15.1167574383 15.1167574383 18.6736401605
5447 1 15.1167574383 15.1167574383 22.2305250168
5448 1 15.1167574383 15.1167574383 25.7874098732
5449 1 15.1167574383 15.1167574383 29.3442925954
5450 1 15.1167574383 15.1167574383 32.9011774517
5451 1 15.1167574383 18.6736401605 0.8892210007
5452 1 15.1167574383 18.6736401605 4.4461050034
5453 1 15.1167574383 18.6736401605 8.0029887926
5454 1 15.1167574383 18.6736401605 11.5598725819
5455 1 15.1167574383 18.6736401605 15.1167574383
5456 1 15.1167574383 18.6736401605 18.6736401605
5457 1 15.1167574383 18.6736401605 22.2305250168
5458 1 15.1167574383 18.6736401605 25.7874098732
5459 1 15.1167574383 18.6736401605 29.3442925954
5460 1 15.1167574383 18.6736401605 32.9011774517
5461 1 15.1167574383 22.2305250168 0.8892210007
5462 1 15.1167574383 22.2305250168 4.4461050034
5463 1 15.1167574383 22.2305250168 8.0029887926
5464 1 15.1167574383 22.2305250168 11.5598725819
5465 1 15.1167574383 22.2305250168 15.1167574383
5466 1 15.1167574383 22.2305250168 18.6736401605
5467 1 15.1167574383 22.2305250168 22.2305250168
5468 1 15.1167574383 22.2305250168 25.7874098732
5469 1 15.1167574383 22.2305250168 29.3442925954
5470 1 15.1167574383 22.2305250168 32.9011774517
5471 1 15.1167574383 25.7874098732 0.8892210007
5472 1 15.1167574383 25.7874098732 4.4461050034
5473 1 15.1167574383 25.7874098732 8.0029887926
5474 1 15.1167574383 25.7874098732 11.5598725819
5475 1 15.1167574383 25.7874098732 15.1167574383
5476 1 15.1167574383 25.7874098732 18.6736401605
5477 1 15.1167574383 25.7874098732 22.2305250168
5478 1 15.1167574383 25.7874098732 25.7874098732
5479 1 15.1167574383 25.7874098732 29.3442925954
5480 1 15.1167574383 25.7874098732 32.9011774517
5481 1 15.1167574383 29.3442925954 0.8892210007
5482 1 15.1167574383 29.3442925954 4.4461050034
5483 1 15.1167574383 29.3442925954 8.0029887926
5484 1 15.1167574383 29.3442925954 11.5598725819
5485 1 15.1167574383 29.3442925954 15.1167574383
5486 1 15.1167574383 29.3442925954 18.6736401605
5487 1 15.1167574383 29.3442925954 22.2305250168
5488 1 15.1167574383 29.3442925954 25.7874098732
5489 1 15.1167574383 29.3442925954 29.3442925954
5490 1 15.1167574383 29.3442925954 32.9011774517
5491 1 15.1167574383 32.9011774517 0.8892210007
5492 1 15.1167574383 32.9011774517 4.4461050034
5493 1 15.1167574383 32.9011774517 8.0029887926
5494 1 15.1167574383 32.9011774517 11.5598725819
5495 1 15.1167574383 32.9011774517 15.1167574383
5496 1 15.1167574383 32.9011774517 18.6736401605
5497 1 15.1167574383 32.9011774517 22.2305250168
5498 1 15.1167574383 32.9011774517 25.7874098732
5499 1 15.1167574383 32.9011774517 29.3442925954
5500 1 15.1167574383 32.9011774517 32.9011774517
5501 1 18.6736401605 0.8892210007 0.8892210007
5502 1 18.6736401605 0.8892210007 4.4461050034
5503 1 18.6736401605 0.8892210007 8.0029887926
5504 1 18.6736401605 0.8892210007 11.5598725819
5505 1 18.6736401605 0.8892210007 15.1167574383
5506 1 18.6736401605 0.8892210007 18.6736401605
5507 1 18.6736401605 0.8892210007 22.2305250168
5508 1 18.6736401605 0.8892210007 25.7874098732
5509 1 18.6736401605 0.8892210007 29.3442925954
5510 1 18.6736401605 0.8892210007 32.9011774517
5511 1 18.6736401605 4.4461050034 0.8892210007
5512 1 18.6736401605 4.4461050034 4.4461050034
5513 1 18.6736401605 4.4461050034 8.0029887926
5514 1 18.6736401605 4.4461050034 11.5598725819
5515 1 18.6736401605 4.4461050034 15.1167574383
5516 1 18.6736401605 4.4461050034 18.6736401605
5517 1 18.6736401605 4.4461050034 22.2305250168
5518 1 18.6736401605 4.4461050034 25.7874098732
5519 1 18.6736401605 4.4461050034 29.3442925954
5520 1 18.6736401605 4.4461050034 32.9011774517
5521 1 18.6736401605 8.0029887926 0.8892210007
5522 1 18.6736401605 8.0029887926 4.4461050034
5523 1 18.6736401605 8.0029887926 8.0029887926
5524 1 18.6736401605 8.0029887926 11.5598725819
5525 1 18.6736401605 8.0029887926 15.1167574383
5526 1 18.6736401605 8.0029887926 18.6736401605
5527 1 18.6736401605 8.0029887926 22.2305250168
5528 1 18.6736401605 8.0029887926 25.7874098732
5529 1 18.6736401605 8.0029887926 29.3442925954
5530 1 18.6736401605 8.0029887926 32.9011774517
5531 1 18.6736401605 11.5598725819 0.8892210007
5532 1 18.6736401605 11.5598725819 4.4461050034
5533 1 18.6736401605 11.5598725819 8.0029887926
5534 1 18.6736401605 11.5598725819 11.5598725819
5535 1 18.6736401605 11.5598725819 15.1167574383
5536 1 18.6736401605 11.5598725819 18.6736401605
5537 1 18.6736401605 11.5598725819 22.2305250168
5538 1 18.6736401605 11.5598725819 25.7874098732
5539 1 18.6736401605 11.5598725819 29.3442925954
5540 1 18.6736401605 11.5598725819 32.9011774517
5541 1 18.6736401605 15.1167574383 0.8892210007
5542 1 18.6736401605 15.1167574383 4.4461050034
5543 1 18.6736401605 15.1167574383 8.0029887926
5544 1 18.6736401605 15.1167574383 11.5598725819
5545 1 18.6736401605 15.1167574383 15.1167574383
5546 1 18.6736401605 15.1167574383 18.6736401605
5547 1 18.6736401605 15.1167574383 22.2305250168
5548 1 18.6736401605 15.1167574383 25.7874098732
5549 1 18.6736401605 15.1167574383 29.3442925954
5550 1 18.6736401605 15.1167574383 32.9011774517
5551 1 18.6736401605 18.6736401605 0.8892210007
5552 1 18.6736401605 18.6736401605 4.4461050034
5553 1 18.6736401605 18.6736401605 8.0029887926
5554 1 18.6736401605 18.6736401605 11.5598725819
5555 1 18.6736401605 18.6736401605 15.1167574383
5556 1 18.6736401605 18.6736401605 18.6736401605
5557 1 18.6736401605 18.6736401605 22.2305250168
5558 1 18.6736401605 18.6736401605 25.7874098732
5559 1 18.6736401605 18.6736401605 29.3442925954
5560 1 18.6736401605 18.6736401605 32.9011774517
5561 1 18.6736401605 22.2305250168 0.8892210007
5562 1 18.6736401605 22.2305250168 4.4461050034
5563 1 18.6736401605 22.2305250168 8.0029887926
5564 1 18.6736401605 22.2305250168 11.5598725819
5565 1 18.6736401605 22.2305250168 15.1167574383
5566 1 18.6736401605 22.2305250168 18.6736401605
5567 1 18.6736401605 22.2305250168 22.2305250168
5568 1 18.6736401605 22.2305250168 25.7874098732
5569 1 18.6736401605 22.2305250168 29.3442925954
5570 1 18.6736401605 22.2305250168 32.9011774517
5571 1 18.6736401605 25.7874098732 0.8892210007
5572 1 18.6736401605 25.7874098732 4.4461050034
5573 1 18.6736401605 25.7874098732 8.0029887926
5574 1 18.6736401605 25.7874098732 11.5598725819
5575 1 18.6736401605 25.7874098732 15.1167574383
5576 1 18.6736401605 25.7874098732 18.6736401605
5577 1 18.6736401605 25.7874098732 22.2305250168
5578 1 18.6736401605 25.7874098732 25.7874098732
5579 1 18.6736401605 25.7874098732 29.3442925954
5580 1 18.6736401605 25.7874098732 32.9011774517
5581 1 18.6736401605 29.3442925954 0.8892210007
5582 1 18.6736401605 29.3442925954 4.4461050034
5583 1 18.6736401605 29.3442925954 8.0029887926
5584 1 18.6736401605 29.3442925954 11.5598725819
5585 1 18.6736401605 29.3442925954 15.1167574383
5586 1 18.6736401605 29.3442925954 18.6736401605
5587 1 18.6736401605 29.3442925954 22.2305250168
5588 1 18.6736401605 29.3442925954 25.7874098732
5589 1 18.6736401605 29.3442925954 29.3442925954
5590 1 18.6736401605 29.3442925954 32.9011774517
5591 1 18.6736401605 32.9011774517 0.8892210007
5592 1 18.6736401605 32.9011774517 4.4461050034
5593 1 18.6736401605 32.9011774517 8.0029887926
5594 1 18.6736401605 32.9011774517 11.5598725819
5595 1 18.6736401605 32.9011774517 15.1167574383
5596 1 18.6736401605 32.9011774517 18.6736401605
5597 1 18.6736401605 32.9011774517 22.2305250168
5598 1 18.6736401605 32.9011774517 25.7874098732
5599 1 18.6736401605 32.9011774517 29.3442925954
5600 1 18.6736401605 32.9011774517 32.9011774517
5601 1 22.2305250168 0.8892210007 0.8892210007
5602 1 22.2305250168 0.8892210007 4.4461050034
5603 1 22.2305250168 0.8892210007 8.0029887926
5604 1 22.2305250168 0.8892210007 11.5598725819
5605 1 22.2305250168 0.8892210007 15.1167574383
5606 1 22.2305250168 0.8892210007 18.6736401605
5607 1 22.2305250168 0.8892210007 22.2305250168
5608 1 22.2305250168 0.8892210007 25.7874098732
5609 1 22.2305250168 0.8892210007 29.3442925954
5610 1 22.2305250168 0.8892210007 32.9011774517
5611 1 22.2305250168 4.4461050034 0.8892210007
5612 1 22.2305250168 4.4461050034 4.4461050034
5613 1 22.2305250168 4.4461050034 8.0029887926
5614 1 22.2305250168 4.4461050034 11.5598725819
5615 1 22.2305250168 4.4461050034 15.1167574383
5616 1 22.2305250168 4.4461050034 18.6736401605
5617 1 22.2305250168 4.4461050034 22.2305250168
5618 1 22.2305250168 4.4461050034 25.7874098732
5619 1 22.2305250168 4.4461050034 29.3442925954
5620 1 22.2305250168 4.4461050034 32.9011774517
5621 1 22.2305250168 8.0029887926 0.8892210007
5622 1 22.2305250168 8.0029887926 4.4461050034
5623 1 22.2305250168 8.0029887926 8.0029887926
5624 1 22.2305250168 8.0029887926 11.5598725819
5625 1 22.2305250168 8.0029887926 15.1167574383
5626 1 22.2305250168 8.0029887926 18.6736401605
5627 1 22.2305250168 8.0029887926 22.2305250168
5628 1 22.2305250168 8.0029887926 25.7874098732
5629 1 22.2305250168 8.0029887926 29.3442925954
5630 1 22.2305250168 8.0029887926 32.9011774517
5631 1 22.2305250168 11.5598725819 0.8892210007
5632 1 22.2305250168 11.5598725819 4.4461050034
5633 1 22.2305250168 11.5598725819 8.0029887926
5634 1 22.2305250168 11.5598725819 11.5598725819
5635 1 22.2305250168 11.5598725819 15.1167574383
5636 1 22.2305250168 11.5598725819 18.6736401605
5637 1 22.2305250168 11.5598725819 22.2305250168
5638 1 22.2305250168 11.5598725819 25.7874098732
5639 1 22.2305250168 11.5598725819 29.3442925954
5640 1 22.2305250168 11.5598725819 32.9011774517
5641 1 22.2305250168 15.1167574383 0.8892210007
5642 1 22.2305250168 15.1167574383 4.4461050034
5643 1 22.2305250168 15.1167574383 8.0029887926
5644 1 22.2305250168 15.1167574383 11.5598725819
5645 1 22.2305250168 15.1167574383 15.1167574383
5646 1 22.2305250168 15.1167574383 18.6736401605
5647 1 22.2305250168 15.1167574383 22.2305250168
5648 1 22.2305250168 15.1167574383 25.7874098732
5649 1 22.2305250168 15.1167574383 29.3442925954
5650 1 22.2305250168 15.1167574383 32.9011774517
5651 1 22.2305250168 18.6736401605 0.8892210007
5652 1 22.2305250168 18.6736401605 4.4461050034
5653 1 22.2305250168 18.6736401605 8.0029887926
5654 1 22.2305250168 18.6736401605 11.5598725819
5655 1 22.2305250168 18.6736401605 15.1167574383
5656 1 22.2305250168 18.6736401605 18.6736401605
5657 1 22.2305250168 18.6736401605 22.2305250168
5658 1 22.2305250168 18.6736401605 25.7874098732
5659 1 22.2305250168 18.6736401605 29.3442925954
5660 1 22.2305250168 18.6736401605 32.9011774517
5661 1 22.2305250168 22.2305250168 0.8892210007
5662 1 22.2305250168 22.2305250168 4.4461050034
5663 1 22.2305250168 22.2305250168 8.0029887926
5664 1 22.2305250168 22.2305250168 11.5598725819
5665 1 22.2305250168 22.2305250168 15.1167574383
5666 1 22.2305250168 22.2305250168 18.6736401605
5667 1 22.2305250168 22.2305250168 22.2305250168
5668 1 22.2305250168 22.2305250168 25.7874098732
5669 1 22.2305250168 22.2305250168 29.3442925954
5670 1 22.2305250168 22.2305250168 32.9011774517
5671 1 22.2305250168 25.7874098732 0.8892210007
5672 1 22.2305250168 25.7874098732 4.4461050034
5673 1 22.2305250168 25.7874098732 8.0029887926
5674 1 22.2305250168 25.7874098732 11.5598725819
5675 1 22.2305250168 25.7874098732 15.1167574383
5676 1 22.2305250168 25.7874098732 18.6736401605
5677 1 22.2305250168 25.7874098732 22.2305250168
5678 1 22.2305250168 25.7874098732 25.7874098732
5679 1 22.2305250168 25.7874098732 29.3442925954
5680 1 22.2305250168 25.7874098732 32.9011774517
5681 1 22.2305250168 29.3442925954 0.8892210007
5682 1 22.2305250168 29.3442925954 4.4461050034
5683 1 22.2305250168 29.3442925954 8.0029887926
5684 1 22.2305250168 29.3442925954 11.5598725819
5685 1 22.2305250168 29.3442925954 15.1167574383
5686 1 22.2305250168 29.3442925954 18.6736401605
5687 1 22.2305250168 29.3442925954 22.2305250168
5688 1 22.2305250168 29.3442925954 25.7874098732
5689 1 22.2305250168 29.3442925954 29.3442925954
5690 1 22.2305250168 29.3442925954 32.9011774517
5691 1 22.2305250168 32.9011774517 0.8892210007
5692 1 22.2305250168 32.9011774517 4.4461050034
5693 1 22.2305250168 32.9011774517 8.0029887926
5694 1 22.2305250168 32.9011774517 11.5598725819
5695 1 22.2305250168 32.9011774517 15.1167574383
5696 1 22.2305250168 32.9011774517 18.6736401605
5697 1 22.2305250168 32.9011774517 22.2305250168
5698 1 22.2305250168 32.9011774517 25.7874098732
5699 1 22.2305250168 32.9011774517 29.3442925954
5700 1 22.2305250168 32.9011774517 32.9011774517
5701 1 25.7874098732 0.8892210007 0.8892210007
5702 1 25.7874098732 0.8892210007 4.4461050034
5703 1 25.7874098732 0.8892210007 8.0029887926
5704 1 25.7874098732 0.8892210007 11.5598725819
5705 1 25.7874098732 0.8892210007 15.1167574383
5706 1 25.7874098732 0.8892210007 18.6736401605
5707 1 25.7874098732 0.8892210007 22.2305250168
5708 1 25.7874098732 0.8892210007 25.7874098732
5709 1 25.7874098732 0.8892210007 29.3442925954
5710 1 25.7874098732 0.8892210007 32.9011774517
5711 1 25.7874098732 4.4461050034 0.8892210007
5712 1 25.7874098732 4.4461050034 4.4461050034
5713 1 25.7874098732 4.4461050034 8.0029887926
5714 1 25.7874098732 4.4461050034 11.5598725819
5715 1 25.7874098732 4.4461050034 15.1167574383
5716 1 25.7874098732 4.4461050034 18.6736401605
5717 1 25.7874098732 4.4461050034 22.2305250168
5718 1 25.7874098732 4.4461050034 25.7874098732
5719 1 25.7874098732 4.4461050034 29.3442925954
5720 1 25.7874098732 4.4461050034 32.9011774517
5721 1 25.7874098732 8.0029887926 0.8892210007
5722 1 25.7874098732 8.0029887926 4.4461050034
5723 1 25.7874098732 8.0029887926 8.0029887926
5724 1 25.7874098732 8.0029887926 11.5598725819
5725 1 25.7874098732 8.0029887926 15.1167574383
5726 1 25.7874098732 8.0029887926 18.6736401605
5727 1 25.7874098732 8.0029887926 22.2305250168
5728 1 25.7874098732 8.0029887926 25.7874098732
5729 1 25.7874098732 8.0029887926 29.3442925954
5730 1 25.7874098732 8.0029887926 32.9011774517
5731 1 25.7874098732 11.5598725819 0.8892210007
5732 1 25.7874098732 11.5598725819 4.4461050034
5733 1 25.7874098732 11.5598725819 8.0029887926
5734 1 25.7874098732 11.5598725819 11.5598725819
5735 1 25.7874098732 11.5598725819 15.1167574383
5736 1 25.7874098732 11.5598725819 18.6736401605
5737 1 25.7874098732 11.5598725819 22.2305250168
5738 1 25.7874098732 11.5598725819 25.7874098732
5739 1 25.7874098732 11.5598725819 29.3442925954
5740 1 25.7874098732 11.5598725819 32.9011774517
5741 1 25.7874098732 15.1167574383 0.8892210007
5742 1 25.7874098732 15.1167574383 4.4461050034
5743 1 25.7874098732 15.1167574383 8.0029887926
5744 1 25.7874098732 15.1167574383 11.5598725819
5745 1 25.7874098732 15.1167574383 15.1167574383
5746 1 25.7874098732 15.1167574383 18.6736401605
5747 1 25.7874098732 15.1167574383 22.2305250168
5748 1 25.7874098732 15.1167574383 25.7874098732
5749 1 25.7874098732 15.1167574383 29.3442925954
5750 1 25.7874098732 15.1167574383 32.9011774517
5751 1 25.7874098732 18.6736401605 0.8892210007
5752 1 25.7874098732 18.6736401605 4.4461050034
5753 1 25.7874098732 18.6736401605 8.0029887926
5754 1 25.7874098732 18.6736401605 11.5598725819
5755 1 25.7874098732 18.6736401605 15.1167574383
5756 1 25.7874098732 18.6736401605 18.6736401605
5757 1 25.7874098732 18.6736401605 22.2305250168
5758 1 25.7874098732 18.6736401605 25.7874098732
5759 1 25.7874098732 18.6736401605 29.3442925954
5760 1 25.7874098732 18.6736401605 32.9011774517
5761 1 25.7874098732 22.2305250168 0.8892210007
5762 1 25.7874098732 22.2305250168 4.4461050034
5763 1 25.7874098732 22.2305250168 8.0029887926
5764 1 25.7874098732 22.2305250168 11.5598725819
5765 1 25.7874098732 22.2305250168 15.1167574383
5766 1 25.7874098732 22.2305250168 18.6736401605
5767 1 25.7874098732 22.2305250168 22.2305250168
5768 1 25.7874098732 22.2305250168 25.7874098732
5769 1 25.7874098732 22.2305250168 29.3442925954
5770 1 25.7874098732 22.2305250168 32.9011774517
5771 1 25.7874098732 25.7874098732 0.8892210007
5772 1 25.7874098732 25.7874098732 4.4461050034
5773 1 25.7874098732 25.7874098732 8.0029887926
5774 1 25.7874098732 25.7874098732 11.5598725819
5775 1 25.7874098732 25.7874098732 15.1167574383
5776 1 25.7874098732 25.7874098732 18.6736401605
5777 1 25.7874098732 25.7874098732 22.2305250168
5778 1 25.7874098732 25.7874098732 25.7874098732
5779 1 25.7874098732 25.7874098732 29.3442925954
5780 1 25.7874098732 25.7874098732 32.9011774517
5781 1 25.7874098732 29.3442925954 0.8892210007
5782 1 25.7874098732 29.3442925954 4.4461050034
5783 1 25.7874098732 29.3442925954 8.0029887926
5784 1 25.7874098732 29.3442925954 11.5598725819
5785 1 25.7874098732 29.3442925954 15.1167574383
5786 1 25.7874098732 29.3442925954 18.6736401605
5787 1 25.7874098732 29.3442925954 22.2305250168
5788 1 25.7874098732 29.3442925954 25.7874098732
5789 1 25.7874098732 29.3442925954 29.3442925954
5790 1 25.7874098732 29.3442925954 32.9011774517
5791 1 25.7874098732 32.9011774517 0.8892210007
5792 1 25.7874098732 32.9011774517 4.4461050034
5793 1 25.7874098732 32.9011774517 8.0029887926
5794 1 25.7874098732 32.9011774517 11.5598725819
5795 1 25.7874098732 32.9011774517 15.1167574383
5796 1 25.7874098732 32.9011774517 18.6736401605
5797 1 25.7874098732 32.9011774517 22.2305250168
5798 1 25.7874098732 32.9011774517 25.7874098732
5799 1 25.7874098732 32.9011774517 29.3442925954
5800 1 25.7874098732 32.9011774517 32.9011774517
5801 1 29.3442925954 0.8892210007 0.8892210007
5802 1 29.3442925954 0.8892210007 4.4461050034
5803 1 29.3442925954 0.8892210007 8.0029887926
5804 1 29.3442925954 0.8892210007 11.5598725819
5805 1 29.3442925954 0.8892210007 15.1167574383
5806 1 29.3442925954 0.8892210007 18.6736401605
5807 1 29.3442925954 0.8892210007 22.2305250168
5808 1 29.3442925954 0.8892210007 25.7874098732
5809 1 29.3442925954 0.8892210007 29.3442925954
5810 1 29.3442925954 0.8892210007 32.9011774517
5811 1 29.3442925954 4.4461050034 0.8892210007
5812 1 29.3442925954 4.4461050034 4.4461050034
5813 1 29.3442925954 4.4461050034 8.0029887926
5814 1 29.3442925954 4.4461050034 11.5598725819
5815 1 29.3442925954 4.4461050034 15.1167574383
5816 1 29.3442925954 4.4461050034 18.6736401605
5817 1 29.3442925954 4.4461050034 22.2305250168
5818 1 29.3442925954 4.4461050034 25.7874098732
5819 1 29.3442925954 4.4461050034 29.3442925954
5820 1 29.3442925954 4.4461050034 32.9011774517
5821 1 29.3442925954 8.0029887926 0.8892210007
5822 1 29.3442925954 8.0029887926 4.4461050034
5823 1 29.3442925954 8.0029887926 8.0029887926
5824 1 29.3442925954 8.0029887926 11.5598725819
5825 1 29.3442925954 8.0029887926 15.1167574383
5826 1 29.3442925954 8.0029887926 18.6736401605
5827 1 29.3442925954 8.0029887926 22.2305250168
5828 1 29.3442925954 8.0029887926 25.7874098732
5829 1 29.3442925954 8.0029887926 29.3442925954
5830 1 29.3442925954 8.0029887926 32.9011774517
5831 1 29.3442925954 11.5598725819 0.8892210007
5832 1 29.3442925954 11.5598725819 4.4461050034
5833 1 29.3442925954 11.5598725819 8.0029887926
5834 1 29.3442925954 11.5598725819 11.5598725819
5835 1 29.3442925954 11.5598725819 15.1167574383
5836 1 29.3442925954 11.5598725819 18.6736401605
5837 1 29.3442925954 11.5598725819 22.2305250168
5838 1 29.3442925954 11.5598725819 25.7874098732
5839 1 29.3442925954 11.5598725819 29.3442925954
5840 1 29.3442925954 11.5598725819 32.9011774517
5841 1 29.3442925954 15.1167574383 0.8892210007
5842 1 29.3442925954 15.1167574383 4.4461050034
5843 1 29.3442925954 15.1167574383 8.0029887926
5844 1 29.3442925954 15.1167574383 11.5598725819
5845 1 29.3442925954 15.1167574383 15.1167574383
5846 1 29.3442925954 15.1167574383 18.6736401605
5847 1 29.3442925954 15.1167574383 22.2305250168
5848 1 29.3442925954 15.1167574383 25.7874098732
5849 1 29.3442925954 15.1167574383 29.3442925954
5850 1 29.3442925954 15.1167574383 32.9011774517
5851 1 29.3442925954 18.6736401605 0.8892210007
5852 1 29.3442925954 18.6736401605 4.4461050034
5853 1 29.3442925954 18.6736401605 8.0029887926
5854 1 29.3442925954 18.6736401605 11.5598725819
5855 1 29.3442925954 18.6736401605 15.1167574383
5856 1 29.3442925954 18.6736401605 18.6736401605
5857 1 29.3442925954 18.6736401605 22.2305250168
5858 1 29.3442925954 18.6736401605 25.7874098732
5859 1 29.3442925954 18.6736401605 29.3442925954
5860 1 29.3442925954 18.6736401605 32.9011774517
5861 1 29.3442925954 22.2305250168 0.8892210007
5862 1 29.3442925954 22.2305250168 4.4461050034
5863 1 29.3442925954 22.2305250168 8.0029887926
5864 1 29.3442925954 22.2305250168 11.5598725819
5865 1 29.3442925954 22.2305250168 15.1167574383
5866 1 29.3442925954 22.2305250168 18.6736401605
5867 1 29.3442925954 22.2305250168 22.2305250168
5868 1 29.3442925954 22.2305250168 25.7874098732
5869 1 29.3442925954 22.2305250168 29.3442925954
5870 1 29.3442925954 22.2305250168 32.9011774517
5871 1 29.3442925954 25.7874098732 0.8892210007
5872 1 29.3442925954 25.7874098732 4.4461050034
5873 1 29.3442925954 25.7874098732 8.0029887926
5874 1 29.3442925954 25.7874098732 11.5598725819
5875 1 29.3442925954 25.7874098732 15.1167574383
5876 1 29.3442925954 25.7874098732 18.6736401605
5877 1 29.3442925954 25.7874098732 22.2305250168
5878 1 29.3442925954 25.7874098732 25.7874098732
5879 1 29.3442925954 25.7874098732 29.3442925954
5880 1 29.3442925954 25.7874098732 32.9011774517
5881 1 29.3442925954 29.3442925954 0.8892210007
5882 1 29.3442925954 29.3442925954 4.4461050034
5883 1 29.3442925954 29.3442925954 8.0029887926
5884 1 29.3442925954 29.3442925954 11.5598725819
5885 1 29.3442925954 29.3442925954 15.1167574383
5886 1 29.3442925954 29.3442925954 18.6736401605
5887 1 29.3442925954 29.3442925954 22.2305250168
5888 1 29.3442925954 29.3442925954 25.7874098732
5889 1 29.3442925954 29.3442925954 29.3442925954
5890 1 29.3442925954 29.3442925954 32.9011774517
5891 1 29.3442925954 32.9011774517 0.8892210007
5892 1 29.3442925954 32.9011774517 4.4461050034
5893 1 29.3442925954 32.9011774517 8.0029887926
5894 1 29.3442925954 32.9011774517 11.5598725819
5895 1 29.3442925954 32.9011774517 15.1167574383
5896 1 29.3442925954 32.9011774517 18.6736401605
5897 1 29.3442925954 32.9011774517 22.2305250168
5898 1 29.3442925954 32.9011774517 25.7874098732
5899 1 29.3442925954 32.9011774517 29.3442925954
5900 1 29.3442925954 32.9011774517 32.9011774517
5901 1 32.9011774517 0.8892210007 0.8892210007
5902 1 32.9011774517 0.8892210007 4.4461050034
5903 1 32.9011774517 0.8892210007 8.0029887926
5904 1 32.9011774517 0.8892210007 11.5598725819
5905 1 32.9011774517 0.8892210007 15.1167574383
5906 1 32.9011774517 0.8892210007 18.6736401605
5907 1 32.9011774517 0.8892210007 22.2305250168
5908 1 32.9011774517 0.8892210007 25.7874098732
5909 1 32.9011774517 0.8892210007 29.3442925954
5910 1 32.9011774517 0.8892210007 32.9011774517
5911 1 32.9011774517 4.4461050034 0.8892210007
5912 1 32.9011774517 4.4461050034 4.4461050034
5913 1 32.9011774517 4.4461050034 8.0029887926
5914 1 32.9011774517 4.4461050034 11.5598725819
5915 1 32.9011774517 4.4461050034 15.1167574383
5916 1 32.9011774517 4.4461050034 18.6736401605
5917 1 32.9011774517 4.4461050034 22.2305250168
5918 1 32.9011774517 4.4461050034 25.7874098732
5919 1 32.9011774517 4.4461050034 29.3442925954
5920 1 32.9011774517 4.4461050034 32.9011774517
5921 1 32.9011774517 8.0029887926 0.8892210007
5922 1 32.9011774517 8.0029887926 4.4461050034
5923 1 32.9011774517 8.0029887926 8.0029887926
5924 1 32.9011774517 8.0029887926 11.5598725819
5925 1 32.9011774517 8.0029887926 15.1167574383
5926 1 32.9011774517 8.0029887926 18.6736401605
5927 1 32.9011774517 8.0029887926 22.2305250168
5928 1 32.9011774517 8.0029887926 25.7874098732
5929 1 32.9011774517 8.0029887926 29.3442925954
5930 1 32.9011774517 8.0029887926 32.9011774517
5931 1 32.9011774517 11.5598725819 0.8892210007
5932 1 32.9011774517 11.5598725819 4.4461050034
5933 1 32.9011774517 11.5598725819 8.0029887926
5934 1 32.9011774517 11.5598725819 11.5598725819
5935 1 32.9011774517 11.5598725819 15.1167574383
5936 1 32.9011774517 11.5598725819 18.6736401605
5937 1 32.9011774517 11.5598725819 22.2305250168
5938 1 32.9011774517 11.5598725819 25.7874098732
5939 1 32.9011774517 11.5598725819 29.3442925954
5940 1 32.9011774517 11.5598725819 32.9011774517
5941 1 32.9011774517 15.1167574383 0.8892210007
5942 1 32.9011774517 15.1167574383 4.4461050034
5943 1 32.9011774517 15.1167574383 8.0029887926
5944 1 32.9011774517 15.1167574383 11.5598725819
5945 1 32.9011774517 15.1167574383 15.1167574383
5946 1 32.9011774517 15.1167574383 18.6736401605
5947 1 32.9011774517 15.1167574383 22.2305250168
5948 1 32.9011774517 15.1167574383 25.7874098732
5949 1 32.9011774517 15.1167574383 29.3442925954
5950 1 32.9011774517 15.1167574383 32.9011774517
5951 1 32.9011774517 18.6736401605 0.8892210007
5952 1 32.9011774517 18.6736401605 4.4461050034
5953 1 32.9011774517 18.6736401605 8.0029887926
5954 1 32.9011774517 18.6736401605 11.5598725819
5955 1 32.9011774517 18.6736401605 15.1167574383
5956 1 32.9011774517 18.6736401605 18.6736401605
5957 1 32.9011774517 18.6736401605 22.2305250168
5958 1 32.9011774517 18.6736401605 25.7874098732
5959 1 32.9011774517 18.6736401605 29.3442925954
5960 1 32.9011774517 18.6736401605 32.9011774517
5961 1 32.9011774517 22.2305250168 0.8892210007
5962 1 32.9011774517 22.2305250168 4.4461050034
5963 1 32.9011774517 22.2305250168 8.0029887926
5964 1 32.9011774517 22.2305250168 11.5598725819
5965 1 32.9011774517 22.2305250168 15.1167574383
5966 1 32.9011774517 22.2305250168 18.6736401605
5967 1 32.9011774517 22.2305250168 22.2305250168
5968 1 32.9011774517 22.2305250168 25.7874098732
5969 1 32.9011774517 22.2305250168 29.3442925954
5970 1 32.9011774517 22.2305250168 32.9011774517
5971 1 32.9011774517 25.7874098732 0.8892210007
5972 1 32.9011774517 25.7874098732 4.4461050034
5973 1 32.9011774517 25.7874098732 8.0029887926
5974 1 32.9011774517 25.7874098732 11.5598725819
5975 1 32.9011774517 25.7874098732 15.1167574383
5976 1 32.9011774517 25.7874098732 18.6736401605
5977 1 32.9011774517 25.7874098732 22.2305250168
5978 1 32.9011774517 25.7874098732 25.7874098732
5979 1 32.9011774517 25.7874098732 29.3442925954
5980 1 32.9011774517 25.7874098732 32.9011774517
5981 1 32.9011774517 29.3442925954 0.8892210007
5982 1 32.9011774517 29.3442925954 4.4461050034
5983 1 32.9011774517 29.3442925954 8.0029887926
5984 1 32.9011774517 29.3442925954 11.5598725819
5985 1 32.9011774517 29.3442925954 15.1167574383
5986 1 32.9011774517 29.3442925954 18.6736401605
5987 1 32.9011774517 29.3442925954 22.2305250168
5988 1 32.9011774517 29.3442925954 25.7874098732
5989 1 32.9011774517 29.3442925954 29.3442925954
5990 1 32.9011774517 29.3442925954 32.9011774517
5991 1 32.9011774517 32.9011774517 0.8892210007
5992 1 32.9011774517 32.9011774517 4.4461050034
5993 1 32.9011774517 32.9011774517 8.0029887926
5994 1 32.9011774517 32.9011774517 11.5598725819
5995 1 32.9011774517 32.9011774517 15.1167574383
5996 1 32.9011774517 32.9011774517 18.6736401605
5997 1 32.9011774517 32.9011774517 22.2305250168
5998 1 32.9011774517 32.9011774517 25.7874098732
5999 1 32.9011774517 32.9011774517 29.3442925954
6000 1 32.9011774517 32.9011774517 32.9011774517
6001 1 0.8892210007 2.6676631087 2.6676631087
6002 1 0.8892210007 2.6676631087 6.224546898
6003 1 0.8892210007 2.6676631087 9.7814312208
6004 1 0.8892210007 2.6676631087 13.3383150101
6005 1 0.8892210007 2.6676631087 16.8951987994
6006 1 0.8892210007 2.6676631087 20.4520825886
6007 1 0.8892210007 2.6676631087 24.008967445
6008 1 0.8892210007 2.6676631087 27.5658501672
6009 1 0.8892210007 2.6676631087 31.1227350235
6010 1 0.8892210007 2.6676631087 34.6796198799
6011 1 0.8892210007 6.224546898 2.6676631087
6012 1 0.8892210007 6.224546898 6.224546898
6013 1 0.8892210007 6.224546898 9.7814312208
6014 1 0.8892210007 6.224546898 13.3383150101
6015 1 0.8892210007 6.224546898 16.8951987994
6016 1 0.8892210007 6.224546898 20.4520825886
6017 1 0.8892210007 6.224546898 24.008967445
6018 1 0.8892210007 6.224546898 27.5658501672
6019 1 0.8892210007 6.224546898 31.1227350235
6020 1 0.8892210007 6.224546898 34.6796198799
6021 1 0.8892210007 9.7814312208 2.6676631087
6022 1 0.8892210007 9.7814312208 6.224546898
6023 1 0.8892210007 9.7814312208 9.7814312208
6024 1 0.8892210007 9.7814312208 13.3383150101
6025 1 0.8892210007 9.7814312208 16.8951987994
6026 1 0.8892210007 9.7814312208 20.4520825886
6027 1 0.8892210007 9.7814312208 24.008967445
6028 1 0.8892210007 9.7814312208 27.5658501672
6029 1 0.8892210007 9.7814312208 31.1227350235
6030 1 0.8892210007 9.7814312208 34.6796198799
6031 1 0.8892210007 13.3383150101 2.6676631087
6032 1 0.8892210007 13.3383150101 6.224546898
6033 1 0.8892210007 13.3383150101 9.7814312208
6034 1 0.8892210007 13.3383150101 13.3383150101
6035 1 0.8892210007 13.3383150101 16.8951987994
6036 1 0.8892210007 13.3383150101 20.4520825886
6037 1 0.8892210007 13.3383150101 24.008967445
6038 1 0.8892210007 13.3383150101 27.5658501672
6039 1 0.8892210007 13.3383150101 31.1227350235
6040 1 0.8892210007 13.3383150101 34.6796198799
6041 1 0.8892210007 16.8951987994 2.6676631087
6042 1 0.8892210007 16.8951987994 6.224546898
6043 1 0.8892210007 16.8951987994 9.7814312208
6044 1 0.8892210007 16.8951987994 13.3383150101
6045 1 0.8892210007 16.8951987994 16.8951987994
6046 1 0.8892210007 16.8951987994 20.4520825886
6047 1 0.8892210007 16.8951987994 24.008967445
6048 1 0.8892210007 16.8951987994 27.5658501672
6049 1 0.8892210007 16.8951987994 31.1227350235
6050 1 0.8892210007 16.8951987994 34.6796198799
6051 1 0.8892210007 20.4520825886 2.6676631087
6052 1 0.8892210007 20.4520825886 6.224546898
6053 1 0.8892210007 20.4520825886 9.7814312208
6054 1 0.8892210007 20.4520825886 13.3383150101
6055 1 0.8892210007 20.4520825886 16.8951987994
6056 1 0.8892210007 20.4520825886 20.4520825886
6057 1 0.8892210007 20.4520825886 24.008967445
6058 1 0.8892210007 20.4520825886 27.5658501672
6059 1 0.8892210007 20.4520825886 31.1227350235
6060 1 0.8892210007 20.4520825886 34.6796198799
6061 1 0.8892210007 24.008967445 2.6676631087
6062 1 0.8892210007 24.008967445 6.224546898
6063 1 0.8892210007 24.008967445 9.7814312208
6064 1 0.8892210007 24.008967445 13.3383150101
6065 1 0.8892210007 24.008967445 16.8951987994
6066 1 0.8892210007 24.008967445 20.4520825886
6067 1 0.8892210007 24.008967445 24.008967445
6068 1 0.8892210007 24.008967445 27.5658501672
6069 1 0.8892210007 24.008967445 31.1227350235
6070 1 0.8892210007 24.008967445 34.6796198799
6071 1 0.8892210007 27.5658501672 2.6676631087
6072 1 0.8892210007 27.5658501672 6.224546898
6073 1 0.8892210007 27.5658501672 9.7814312208
6074 1 0.8892210007 27.5658501672 13.3383150101
6075 1 0.8892210007 27.5658501672 16.8951987994
6076 1 0.8892210007 27.5658501672 20.4520825886
6077 1 0.8892210007 27.5658501672 24.008967445
6078 1 0.8892210007 27.5658501672 27.5658501672
6079 1 0.8892210007 27.5658501672 31.1227350235
6080 1 0.8892210007 27.5658501672 34.6796198799
6081 1 0.8892210007 31.1227350235 2.6676631087
6082 1 0.8892210007 31.1227350235 6.224546898
6083 1 0.8892210007 31.1227350235 9.7814312208
6084 1 0.8892210007 31.1227350235 13.3383150101
6085 1 0.8892210007 31.1227350235 16.8951987994
6086 1 0.8892210007 31.1227350235 20.4520825886
6087 1 0.8892210007 31.1227350235 24.008967445
6088 1 0.8892210007 31.1227350235 27.5658501672
6089 1 0.8892210007 31.1227350235 31.1227350235
6090 1 0.8892210007 31.1227350235 34.6796198799
6091 1 0.8892210007 34.6796198799 2.6676631087
6092 1 0.8892210007 34.6796198799 6.224546898
6093 1 0.8892210007 34.6796198799 9.7814312208
6094 1 0.8892210007 34.6796198799 13.3383150101
6095 1 0.8892210007 34.6796198799 16.8951987994
6096 1 0.8892210007 34.6796198799 20.4520825886
6097 1 0.8892210007 34.6796198799 24.008967445
6098 1 0.8892210007 34.6796198799 27.5658501672
6099 1 0.8892210007 34.6796198799 31.1227350235
6100 1 0.8892210007 34.6796198799 34.6796198799
6101 1 4.4461050034 2.6676631087 2.6676631087
6102 1 4.4461050034 2.6676631087 6.224546898
6103 1 4.4461050034 2.6676631087 9.7814312208
6104 1 4.4461050034 2.6676631087 13.3383150101
6105 1 4.4461050034 2.6676631087 16.8951987994
6106 1 4.4461050034 2.6676631087 20.4520825886
6107 1 4.4461050034 2.6676631087 24.008967445
6108 1 4.4461050034 2.6676631087 27.5658501672
6109 1 4.4461050034 2.6676631087 31.1227350235
6110 1 4.4461050034 2.6676631087 34.6796198799
6111 1 4.4461050034 6.224546898 2.6676631087
6112 1 4.4461050034 6.224546898 6.224546898
6113 1 4.4461050034 6.224546898 9.7814312208
6114 1 4.4461050034 6.224546898 13.3383150101
6115 1 4.4461050034 6.224546898 16.8951987994
6116 1 4.4461050034 6.224546898 20.4520825886
6117 1 4.4461050034 6.224546898 24.008967445
6118 1 4.4461050034 6.224546898 27.5658501672
6119 1 4.4461050034 6.224546898 31.1227350235
6120 1 4.4461050034 6.224546898 34.6796198799
6121 1 4.4461050034 9.7814312208 2.6676631087
6122 1 4.4461050034 9.7814312208 6.224546898
6123 1 4.4461050034 9.7814312208 9.7814312208
6124 1 4.4461050034 9.7814312208 13.3383150101
6125 1 4.4461050034 9.7814312208 16.8951987994
6126 1 4.4461050034 9.7814312208 20.4520825886
6127 1 4.4461050034 9.7814312208 24.008967445
6128 1 4.4461050034 9.7814312208 27.5658501672
6129 1 4.4461050034 9.7814312208 31.1227350235
6130 1 4.4461050034 9.7814312208 34.6796198799
6131 1 4.4461050034 13.3383150101 2.6676631087
6132 1 4.4461050034 13.3383150101 6.224546898
6133 1 4.4461050034 13.3383150101 9.7814312208
6134 1 4.4461050034 13.3383150101 13.3383150101
6135 1 4.4461050034 13.3383150101 16.8951987994
6136 1 4.4461050034 13.3383150101 20.4520825886
6137 1 4.4461050034 13.3383150101 24.008967445
6138 1 4.4461050034 13.3383150101 27.5658501672
6139 1 4.4461050034 13.3383150101 31.1227350235
6140 1 4.4461050034 13.3383150101 34.6796198799
6141 1 4.4461050034 16.8951987994 2.6676631087
6142 1 4.4461050034 16.8951987994 6.224546898
6143 1 4.4461050034 16.8951987994 9.7814312208
6144 1 4.4461050034 16.8951987994 13.3383150101
6145 1 4.4461050034 16.8951987994 16.8951987994
6146 1 4.4461050034 16.8951987994 20.4520825886
6147 1 4.4461050034 16.8951987994 24.008967445
6148 1 4.4461050034 16.8951987994 27.5658501672
6149 1 4.4461050034 16.8951987994 31.1227350235
6150 1 4.4461050034 16.8951987994 34.6796198799
6151 1 4.4461050034 20.4520825886 2.6676631087
6152 1 4.4461050034 20.4520825886 6.224546898
6153 1 4.4461050034 20.4520825886 9.7814312208
6154 1 4.4461050034 20.4520825886 13.3383150101
6155 1 4.4461050034 20.4520825886 16.8951987994
6156 1 4.4461050034 20.4520825886 20.4520825886
6157 1 4.4461050034 20.4520825886 24.008967445
6158 1 4.4461050034 20.4520825886 27.5658501672
6159 1 4.4461050034 20.4520825886 31.1227350235
6160 1 4.4461050034 20.4520825886 34.6796198799
6161 1 4.4461050034 24.008967445 2.6676631087
6162 1 4.4461050034 24.008967445 6.224546898
6163 1 4.4461050034 24.008967445 9.7814312208
6164 1 4.4461050034 24.008967445 13.3383150101
6165 1 4.4461050034 24.008967445 16.8951987994
6166 1 4.4461050034 24.008967445 20.4520825886
6167 1 4.4461050034 24.008967445 24.008967445
6168 1 4.4461050034 24.008967445 27.5658501672
6169 1 4.4461050034 24.008967445 31.1227350235
6170 1 4.4461050034 24.008967445 34.6796198799
6171 1 4.4461050034 27.5658501672 2.6676631087
6172 1 4.4461050034 27.5658501672 6.224546898
6173 1 4.4461050034 27.5658501672 9.7814312208
6174 1 4.4461050034 27.5658501672 13.3383150101
6175 1 4.4461050034 27.5658501672 16.8951987994
6176 1 4.4461050034 27.5658501672 20.4520825886
6177 1 4.4461050034 27.5658501672 24.008967445
6178 1 4.4461050034 27.5658501672 27.5658501672
6179 1 4.4461050034 27.5658501672 31.1227350235
6180 1 4.4461050034 27.5658501672 34.6796198799
6181 1 4.4461050034 31.1227350235 2.6676631087
6182 1 4.4461050034 31.1227350235 6.224546898
6183 1 4.4461050034 31.1227350235 9.7814312208
6184 1 4.4461050034 31.1227350235 13.3383150101
6185 1 4.4461050034 31.1227350235 16.8951987994
6186 1 4.4461050034 31.1227350235 20.4520825886
6187 1 4.4461050034 31.1227350235 24.008967445
6188 1 4.4461050034 31.1227350235 27.5658501672
6189 1 4.4461050034 31.1227350235 31.1227350235
6190 1 4.4461050034 31.1227350235 34.6796198799
6191 1 4.4461050034 34.6796198799 2.6676631087
6192 1 4.4461050034 34.6796198799 6.224546898
6193 1 4.4461050034 34.6796198799 9.7814312208
6194 1 4.4461050034 34.6796198799 13.3383150101
6195 1 4.4461050034 34.6796198799 16.8951987994
6196 1 4.4461050034 34.6796198799 20.4520825886
6197 1 4.4461050034 34.6796198799 24.008967445
6198 1 4.4461050034 34.6796198799 27.5658501672
6199 1 4.4461050034 34.6796198799 31.1227350235
6200 1 4.4461050034 34.6796198799 34.6796198799
6201 1 8.0029887926 2.6676631087 2.6676631087
6202 1 8.0029887926 2.6676631087 6.224546898
6203 1 8.0029887926 2.6676631087 9.7814312208
6204 1 8.0029887926 2.6676631087 13.3383150101
6205 1 8.0029887926 2.6676631087 16.8951987994
6206 1 8.0029887926 2.6676631087 20.4520825886
6207 1 8.0029887926 2.6676631087 24.008967445
6208 1 8.0029887926 2.6676631087 27.5658501672
6209 1 8.0029887926 2.6676631087 31.1227350235
6210 1 8.0029887926 2.6676631087 34.6796198799
6211 1 8.0029887926 6.224546898 2.6676631087
6212 1 8.0029887926 6.224546898 6.224546898
6213 1 8.0029887926 6.224546898 9.7814312208
6214 1 8.0029887926 6.224546898 13.3383150101
6215 1 8.0029887926 6.224546898 16.8951987994
6216 1 8.0029887926 6.224546898 20.4520825886
6217 1 8.0029887926 6.224546898 24.008967445
6218 1 8.0029887926 6.224546898 27.5658501672
6219 1 8.0029887926 6.224546898 31.1227350235
6220 1 8.0029887926 6.224546898 34.6796198799
6221 1 8.0029887926 9.7814312208 2.6676631087
6222 1 8.0029887926 9.7814312208 6.224546898
6223 1 8.0029887926 9.7814312208 9.7814312208
6224 1 8.0029887926 9.7814312208 13.3383150101
6225 1 8.0029887926 9.7814312208 16.8951987994
6226 1 8.0029887926 9.7814312208 20.4520825886
6227 1 8.0029887926 9.7814312208 24.008967445
6228 1 8.0029887926 9.7814312208 27.5658501672
6229 1 8.0029887926 9.7814312208 31.1227350235
6230 1 8.0029887926 9.7814312208 34.6796198799
6231 1 8.0029887926 13.3383150101 2.6676631087
6232 1 8.0029887926 13.3383150101 6.224546898
6233 1 8.0029887926 13.3383150101 9.7814312208
6234 1 8.0029887926 13.3383150101 13.3383150101
6235 1 8.0029887926 13.3383150101 16.8951987994
6236 1 8.0029887926 13.3383150101 20.4520825886
6237 1 8.0029887926 13.3383150101 24.008967445
6238 1 8.0029887926 13.3383150101 27.5658501672
6239 1 8.0029887926 13.3383150101 31.1227350235
6240 1 8.0029887926 13.3383150101 34.6796198799
6241 1 8.0029887926 16.8951987994 2.6676631087
6242 1 8.0029887926 16.8951987994 6.224546898
6243 1 8.0029887926 16.8951987994 9.7814312208
6244 1 8.0029887926 16.8951987994 13.3383150101
6245 1 8.0029887926 16.8951987994 16.8951987994
6246 1 8.0029887926 16.8951987994 20.4520825886
6247 1 8.0029887926 16.8951987994 24.008967445
6248 1 8.0029887926 16.8951987994 27.5658501672
6249 1 8.0029887926 16.8951987994 31.1227350235
6250 1 8.0029887926 16.8951987994 34.6796198799
6251 1 8.0029887926 20.4520825886 2.6676631087
6252 1 8.0029887926 20.4520825886 6.224546898
6253 1 8.0029887926 20.4520825886 9.7814312208
6254 1 8.0029887926 20.4520825886 13.3383150101
6255 1 8.0029887926 20.4520825886 16.8951987994
6256 1 8.0029887926 20.4520825886 20.4520825886
6257 1 8.0029887926 20.4520825886 24.008967445
6258 1 8.0029887926 20.4520825886 27.5658501672
6259 1 8.0029887926 20.4520825886 31.1227350235
6260 1 8.0029887926 20.4520825886 34.6796198799
6261 1 8.0029887926 24.008967445 2.6676631087
6262 1 8.0029887926 24.008967445 6.224546898
6263 1 8.0029887926 24.008967445 9.7814312208
6264 1 8.0029887926 24.008967445 13.3383150101
6265 1 8.0029887926 24.008967445 16.8951987994
6266 1 8.0029887926 24.008967445 20.4520825886
6267 1 8.0029887926 24.008967445 24.008967445
6268 1 8.0029887926 24.008967445 27.5658501672
6269 1 8.0029887926 24.008967445 31.1227350235
6270 1 8.0029887926 24.008967445 34.6796198799
6271 1 8.0029887926 27.5658501672 2.6676631087
6272 1 8.0029887926 27.5658501672 6.224546898
6273 1 8.0029887926 27.5658501672 9.7814312208
6274 1 8.0029887926 27.5658501672 13.3383150101
6275 1 8.0029887926 27.5658501672 16.8951987994
6276 1 8.0029887926 27.5658501672 20.4520825886
6277 1 8.0029887926 27.5658501672 24.008967445
6278 1 8.0029887926 27.5658501672 27.5658501672
6279 1 8.0029887926 27.5658501672 31.1227350235
6280 1 8.0029887926 27.5658501672 34.6796198799
6281 1 8.0029887926 31.1227350235 2.6676631087
6282 1 8.0029887926 31.1227350235 6.224546898
6283 1 8.0029887926 31.1227350235 9.7814312208
6284 1 8.0029887926 31.1227350235 13.3383150101
6285 1 8.0029887926 31.1227350235 16.8951987994
6286 1 8.0029887926 31.1227350235 20.4520825886
6287 1 8.0029887926 31.1227350235 24.008967445
6288 1 8.0029887926 31.1227350235 27.5658501672
6289 1 8.0029887926 31.1227350235 31.1227350235
6290 1 8.0029887926 31.1227350235 34.6796198799
6291 1 8.0029887926 34.6796198799 2.6676631087
6292 1 8.0029887926 34.6796198799 6.224546898
6293 1 8.0029887926 34.6796198799 9.7814312208
6294 1 8.0029887926 34.6796198799 13.3383150101
6295 1 8.0029887926 34.6796198799 16.8951987994
6296 1 8.0029887926 34.6796198799 20.4520825886
6297 1 8.0029887926 34.6796198799 24.008967445
6298 1 8.0029887926 34.6796198799 27.5658501672
6299 1 8.0029887926 34.6796198799 31.1227350235
6300 1 8.0029887926 34.6796198799 34.6796198799
6301 1 11.5598725819 2.6676631087 2.6676631087
6302 1 11.5598725819 2.6676631087 6.224546898
6303 1 11.5598725819 2.6676631087 9.7814312208
6304 1 11.5598725819 2.6676631087 13.3383150101
6305 1 11.5598725819 2.6676631087 16.8951987994
6306 1 11.5598725819 2.6676631087 20.4520825886
6307 1 11.5598725819 2.6676631087 24.008967445
6308 1 11.5598725819 2.6676631087 27.5658501672
6309 1 11.5598725819 2.6676631087 31.1227350235
6310 1 11.5598725819 2.6676631087 34.6796198799
6311 1 11.5598725819 6.224546898 2.6676631087
6312 1 11.5598725819 6.224546898 6.224546898
6313 1 11.5598725819 6.224546898 9.7814312208
6314 1 11.5598725819 6.224546898 13.3383150101
6315 1 11.5598725819 6.224546898 16.8951987994
6316 1 11.5598725819 6.224546898 20.4520825886
6317 1 11.5598725819 6.224546898 24.008967445
6318 1 11.5598725819 6.224546898 27.5658501672
6319 1 11.5598725819 6.224546898 31.1227350235
6320 1 11.5598725819 6.224546898 34.6796198799
6321 1 11.5598725819 9.7814312208 2.6676631087
6322 1 11.5598725819 9.7814312208 6.224546898
6323 1 11.5598725819 9.7814312208 9.7814312208
6324 1 11.5598725819 9.7814312208 13.3383150101
6325 1 11.5598725819 9.7814312208 16.8951987994
6326 1 11.5598725819 9.7814312208 20.4520825886
6327 1 11.5598725819 9.7814312208 24.008967445
6328 1 11.5598725819 9.7814312208 27.5658501672
6329 1 11.5598725819 9.7814312208 31.1227350235
6330 1 11.5598725819 9.7814312208 34.6796198799
6331 1 11.5598725819 13.3383150101 2.6676631087
6332 1 11.5598725819 13.3383150101 6.224546898
6333 1 11.5598725819 13.3383150101 9.7814312208
6334 1 11.5598725819 13.3383150101 13.3383150101
6335 1 11.5598725819 13.3383150101 16.8951987994
6336 1 11.5598725819 13.3383150101 20.4520825886
6337 1 11.5598725819 13.3383150101 24.008967445
6338 1 11.5598725819 13.3383150101 27.5658501672
6339 1 11.5598725819 13.3383150101 31.1227350235
6340 1 11.5598725819 13.3383150101 34.6796198799
6341 1 11.5598725819 16.8951987994 2.6676631087
6342 1 11.5598725819 16.8951987994 6.224546898
6343 1 11.5598725819 16.8951987994 9.7814312208
6344 1 11.5598725819 16.8951987994 13.3383150101
6345 1 11.5598725819 16.8951987994 16.8951987994
6346 1 11.5598725819 16.8951987994 20.4520825886
6347 1 11.5598725819 16.8951987994 24.008967445
6348 1 11.5598725819 16.8951987994 27.5658501672
6349 1 11.5598725819 16.8951987994 31.1227350235
6350 1 11.5598725819 16.8951987994 34.6796198799
6351 1 11.5598725819 20.4520825886 2.6676631087
6352 1 11.5598725819 20.4520825886 6.224546898
6353 1 11.5598725819 20.4520825886 9.7814312208
6354 1 11.5598725819 20.4520825886 13.3383150101
6355 1 11.5598725819 20.4520825886 16.8951987994
6356 1 11.5598725819 20.4520825886 20.4520825886
6357 1 11.5598725819 20.4520825886 24.008967445
6358 1 11.5598725819 20.4520825886 27.5658501672
6359 1 11.5598725819 20.4520825886 31.1227350235
6360 1 11.5598725819 20.4520825886 34.6796198799
6361 1 11.5598725819 24.008967445 2.6676631087
6362 1 11.5598725819 24.008967445 6.224546898
6363 1 11.5598725819 24.008967445 9.7814312208
6364 1 11.5598725819 24.008967445 13.3383150101
6365 1 11.5598725819 24.008967445 16.8951987994
6366 1 11.5598725819 24.008967445 20.4520825886
6367 1 11.5598725819 24.008967445 24.008967445
6368 1 11.5598725819 24.008967445 27.5658501672
6369 1 11.5598725819 24.008967445 31.1227350235
6370 1 11.5598725819 24.008967445 34.6796198799
6371 1 11.5598725819 27.5658501672 2.6676631087
6372 1 11.5598725819 27.5658501672 6.224546898
6373 1 11.5598725819 27.5658501672 9.7814312208
6374 1 11.5598725819 27.5658501672 13.3383150101
6375 1 11.5598725819 27.5658501672 16.8951987994
6376 1 11.5598725819 27.5658501672 20.4520825886
6377 1 11.5598725819 27.5658501672 24.008967445
6378 1 11.5598725819 27.5658501672 27.5658501672
6379 1 11.5598725819 27.5658501672 31.1227350235
6380 1 11.5598725819 27.5658501672 34.6796198799
6381 1 11.5598725819 31.1227350235 2.6676631087
6382 1 11.5598725819 31.1227350235 6.224546898
6383 1 11.5598725819 31.1227350235 9.7814312208
6384 1 11.5598725819 31.1227350235 13.3383150101
6385 1 11.5598725819 31.1227350235 16.8951987994
6386 1 11.5598725819 31.1227350235 20.4520825886
6387 1 11.5598725819 31.1227350235 24.008967445
6388 1 11.5598725819 31.1227350235 27.5658501672
6389 1 11.5598725819 31.1227350235 31.1227350235
6390 1 11.5598725819 31.1227350235 34.6796198799
6391 1 11.5598725819 34.6796198799 2.6676631087
6392 1 11.5598725819 34.6796198799 6.224546898
6393 1 11.5598725819 34.6796198799 9.7814312208
6394 1 11.5598725819 34.6796198799 13.3383150101
6395 1 11.5598725819 34.6796198799 16.8951987994
6396 1 11.5598725819 34.6796198799 20.4520825886
6397 1 11.5598725819 34.6796198799 24.008967445
6398 1 11.5598725819 34.6796198799 27.5658501672
6399 1 11.5598725819 34.6796198799 31.1227350235
6400 1 11.5598725819 34.6796198799 34.6796198799
6401 1 15.1167574383 2.6676631087 2.6676631087
6402 1 15.1167574383 2.6676631087 6.224546898
6403 1 15.1167574383 2.6676631087 9.7814312208
6404 1 15.1167574383 2.6676631087 13.3383150101
6405 1 15.1167574383 2.6676631087 16.8951987994
6406 1 15.1167574383 2.6676631087 20.4520825886
6407 1 15.1167574383 2.6676631087 24.008967445
6408 1 15.1167574383 2.6676631087 27.5658501672
6409 1 15.1167574383 2.6676631087 31.1227350235
6410 1 15.1167574383 2.6676631087 34.6796198799
6411 1 15.1167574383 6.224546898 2.6676631087
6412 1 15.1167574383 6.224546898 6.224546898
6413 1 15.1167574383 6.224546898 9.7814312208
6414 1 15.1167574383 6.224546898 13.3383150101
6415 1 15.1167574383 6.224546898 16.8951987994
6416 1 15.1167574383 6.224546898 20.4520825886
6417 1 15.1167574383 6.224546898 24.008967445
6418 1 15.1167574383 6.224546898 27.5658501672
6419 1 15.1167574383 6.224546898 31.1227350235
6420 1 15.1167574383 6.224546898 34.6796198799
6421 1 15.1167574383 9.7814312208 2.6676631087
6422 1 15.1167574383 9.7814312208 6.224546898
6423 1 15.1167574383 9.7814312208 9.7814312208
6424 1 15.1167574383 9.7814312208 13.3383150101
6425 1 15.1167574383 9.7814312208 16.8951987994
6426 1 15.1167574383 9.7814312208 20.4520825886
6427 1 15.1167574383 9.7814312208 24.008967445
6428 1 15.1167574383 9.7814312208 27.5658501672
6429 1 15.1167574383 9.7814312208 31.1227350235
6430 1 15.1167574383 9.7814312208 34.6796198799
6431 1 15.1167574383 13.3383150101 2.6676631087
6432 1 15.1167574383 13.3383150101 6.224546898
6433 1 15.1167574383 13.3383150101 9.7814312208
6434 1 15.1167574383 13.3383150101 13.3383150101
6435 1 15.1167574383 13.3383150101 16.8951987994
6436 1 15.1167574383 13.3383150101 20.4520825886
6437 1 15.1167574383 13.3383150101 24.008967445
6438 1 15.1167574383 13.3383150101 27.5658501672
6439 1 15.1167574383 13.3383150101 31.1227350235
6440 1 15.1167574383 13.3383150101 34.6796198799
6441 1 15.1167574383 16.8951987994 2.6676631087
6442 1 15.1167574383 16.8951987994 6.224546898
6443 1 15.1167574383 16.8951987994 9.7814312208
6444 1 15.1167574383 16.8951987994 13.3383150101
6445 1 15.1167574383 16.8951987994 16.8951987994
6446 1 15.1167574383 16.8951987994 20.4520825886
6447 1 15.1167574383 16.8951987994 24.008967445
6448 1 15.1167574383 16.8951987994 27.5658501672
6449 1 15.1167574383 16.8951987994 31.1227350235
6450 1 15.1167574383 16.8951987994 34.6796198799
6451 1 15.1167574383 20.4520825886 2.6676631087
6452 1 15.1167574383 20.4520825886 6.224546898
6453 1 15.1167574383 20.4520825886 9.7814312208
6454 1 15.1167574383 20.4520825886 13.3383150101
6455 1 15.1167574383 20.4520825886 16.8951987994
6456 1 15.1167574383 20.4520825886 20.4520825886
6457 1 15.1167574383 20.4520825886 24.008967445
6458 1 15.1167574383 20.4520825886 27.5658501672
6459 1 15.1167574383 20.4520825886 31.1227350235
6460 1 15.1167574383 20.4520825886 34.6796198799
6461 1 15.1167574383 24.008967445 2.6676631087
6462 1 15.1167574383 24.008967445 6.224546898
6463 1 15.1167574383 24.008967445 9.7814312208
6464 1 15.1167574383 24.008967445 13.3383150101
6465 1 15.1167574383 24.008967445 16.8951987994
6466 1 15.1167574383 24.008967445 20.4520825886
6467 1 15.1167574383 24.008967445 24.008967445
6468 1 15.1167574383 24.008967445 27.5658501672
6469 1 15.1167574383 24.008967445 31.1227350235
6470 1 15.1167574383 24.008967445 34.6796198799
6471 1 15.1167574383 27.5658501672 2.6676631087
6472 1 15.1167574383 27.5658501672 6.224546898
6473 1 15.1167574383 27.5658501672 9.7814312208
6474 1 15.1167574383 27.5658501672 13.3383150101
6475 1 15.1167574383 27.5658501672 16.8951987994
6476 1 15.1167574383 27.5658501672 20.4520825886
6477 1 15.1167574383 27.5658501672 24.008967445
6478 1 15.1167574383 27.5658501672 27.5658501672
6479 1 15.1167574383 27.5658501672 31.1227350235
6480 1 15.1167574383 27.5658501672 34.6796198799
6481 1 15.1167574383 31.1227350235 2.6676631087
6482 1 15.1167574383 31.1227350235 6.224546898
6483 1 15.1167574383 31.1227350235 9.7814312208
6484 1 15.1167574383 31.1227350235 13.3383150101
6485 1 15.1167574383 31.1227350235 16.8951987994
6486 1 15.1167574383 31.1227350235 20.4520825886
6487 1 15.1167574383 31.1227350235 24.008967445
6488 1 15.1167574383 31.1227350235 27.5658501672
6489 1 15.1167574383 31.1227350235 31.1227350235
6490 1 15.1167574383 31.1227350235 34.6796198799
6491 1 15.1167574383 34.6796198799 2.6676631087
6492 1 15.1167574383 34.6796198799 6.224546898
6493 1 15.1167574383 34.6796198799 9.7814312208
6494 1 15.1167574383 34.6796198799 13.3383150101
6495 1 15.1167574383 34.6796198799 16.8951987994
6496 1 15.1167574383 34.6796198799 20.4520825886
6497 1 15.1167574383 34.6796198799 24.008967445
6498 1 15.1167574383 34.6796198799 27.5658501672
6499 1 15.1167574383 34.6796198799 31.1227350235
6500 1 15.1167574383 34.6796198799 34.6796198799
6501 1 18.6736401605 2.6676631087 2.6676631087
6502 1 18.6736401605 2.6676631087 6.224546898
6503 1 18.6736401605 2.6676631087 9.7814312208
6504 1 18.6736401605 2.6676631087 13.3383150101
6505 1 18.6736401605 2.6676631087 16.8951987994
6506 1 18.6736401605 2.6676631087 20.4520825886
6507 1 18.6736401605 2.6676631087 24.008967445
6508 1 18.6736401605 2.6676631087 27.5658501672
6509 1 18.6736401605 2.6676631087 31.1227350235
6510 1 18.6736401605 2.6676631087 34.6796198799
6511 1 18.6736401605 6.224546898 2.6676631087
6512 1 18.6736401605 6.224546898 6.224546898
6513 1 18.6736401605 6.224546898 9.7814312208
6514 1 18.6736401605 6.224546898 13.3383150101
6515 1 18.6736401605 6.224546898 16.8951987994
6516 1 18.6736401605 6.224546898 20.4520825886
6517 1 18.6736401605 6.224546898 24.008967445
6518 1 18.6736401605 6.224546898 27.5658501672
6519 1 18.6736401605 6.224546898 31.1227350235
6520 1 18.6736401605 6.224546898 34.6796198799
6521 1 18.6736401605 9.7814312208 2.6676631087
6522 1 18.6736401605 9.7814312208 6.224546898
6523 1 18.6736401605 9.7814312208 9.7814312208
6524 1 18.6736401605 9.7814312208 13.3383150101
6525 1 18.6736401605 9.7814312208 16.8951987994
6526 1 18.6736401605 9.7814312208 20.4520825886
6527 1 18.6736401605 9.7814312208 24.008967445
6528 1 18.6736401605 9.7814312208 27.5658501672
6529 1 18.6736401605 9.7814312208 31.1227350235
6530 1 18.6736401605 9.7814312208 34.6796198799
6531 1 18.6736401605 13.3383150101 2.6676631087
6532 1 18.6736401605 13.3383150101 6.224546898
6533 1 18.6736401605 13.3383150101 9.7814312208
6534 1 18.6736401605 13.3383150101 13.3383150101
6535 1 18.6736401605 13.3383150101 16.8951987994
6536 1 18.6736401605 13.3383150101 20.4520825886
6537 1 18.6736401605 13.3383150101 24.008967445
6538 1 18.6736401605 13.3383150101 27.5658501672
6539 1 18.6736401605 13.3383150101 31.1227350235
6540 1 18.6736401605 13.3383150101 34.6796198799
6541 1 18.6736401605 16.8951987994 2.6676631087
6542 1 18.6736401605 16.8951987994 6.224546898
6543 1 18.6736401605 16.8951987994 9.7814312208
6544 1 18.6736401605 16.8951987994 13.3383150101
6545 1 18.6736401605 16.8951987994 16.8951987994
6546 1 18.6736401605 16.8951987994 20.4520825886
6547 1 18.6736401605 16.8951987994 24.008967445
6548 1 18.6736401605 16.8951987994 27.5658501672
6549 1 18.6736401605 16.8951987994 31.1227350235
6550 1 18.6736401605 16.8951987994 34.6796198799
6551 1 18.6736401605 20.4520825886 2.6676631087
6552 1 18.6736401605 20.4520825886 6.224546898
6553 1 18.6736401605 20.4520825886 9.7814312208
6554 1 18.6736401605 20.4520825886 13.3383150101
6555 1 18.6736401605 20.4520825886 16.8951987994
6556 1 18.6736401605 20.4520825886 20.4520825886
6557 1 18.6736401605 20.4520825886 24.008967445
6558 1 18.6736401605 20.4520825886 27.5658501672
6559 1 18.6736401605 20.4520825886 31.1227350235
6560 1 18.6736401605 20.4520825886 34.6796198799
6561 1 18.6736401605 24.008967445 2.6676631087
6562 1 18.6736401605 24.008967445 6.224546898
6563 1 18.6736401605 24.008967445 9.7814312208
6564 1 18.6736401605 24.008967445 13.3383150101
6565 1 18.6736401605 24.008967445 16.8951987994
6566 1 18.6736401605 24.008967445 20.4520825886
6567 1 18.6736401605 24.008967445 24.008967445
6568 1 18.6736401605 24.008967445 27.5658501672
6569 1 18.6736401605 24.008967445 31.1227350235
6570 1 18.6736401605 24.008967445 34.6796198799
6571 1 18.6736401605 27.5658501672 2.6676631087
6572 1 18.6736401605 27.5658501672 6.224546898
6573 1 18.6736401605 27.5658501672 9.7814312208
6574 1 18.6736401605 27.5658501672 13.3383150101
6575 1 18.6736401605 27.5658501672 16.8951987994
6576 1 18.6736401605 27.5658501672 20.4520825886
6577 1 18.6736401605 27.5658501672 24.008967445
6578 1 18.6736401605 27.5658501672 27.5658501672
6579 1 18.6736401605 27.5658501672 31.1227350235
6580 1 18.6736401605 27.5658501672 34.6796198799
6581 1 18.6736401605 31.1227350235 2.6676631087
6582 1 18.6736401605 31.1227350235 6.224546898
6583 1 18.6736401605 31.1227350235 9.7814312208
6584 1 18.6736401605 31.1227350235 13.3383150101
6585 1 18.6736401605 31.1227350235 16.8951987994
6586 1 18.6736401605 31.1227350235 20.4520825886
6587 1 18.6736401605 31.1227350235 24.008967445
6588 1 18.6736401605 31.1227350235 27.5658501672
6589 1 18.6736401605 31.1227350235 31.1227350235
6590 1 18.6736401605 31.1227350235 34.6796198799
6591 1 18.6736401605 34.6796198799 2.6676631087
6592 1 18.6736401605 34.6796198799 6.224546898
6593 1 18.6736401605 34.6796198799 9.7814312208
6594 1 18.6736401605 34.6796198799 13.3383150101
6595 1 18.6736401605 34.6796198799 16.8951987994
6596 1 18.6736401605 34.6796198799 20.4520825886
6597 1 18.6736401605 34.6796198799 24.008967445
6598 1 18.6736401605 34.6796198799 27.5658501672
6599 1 18.6736401605 34.6796198799 31.1227350235
6600 1 18.6736401605 34.6796198799 34.6796198799
6601 1 22.2305250168 2.6676631087 2.6676631087
6602 1 22.2305250168 2.6676631087 6.224546898
6603 1 22.2305250168 2.6676631087 9.7814312208
6604 1 22.2305250168 2.6676631087 13.3383150101
6605 1 22.2305250168 2.6676631087 16.8951987994
6606 1 22.2305250168 2.6676631087 20.4520825886
6607 1 22.2305250168 2.6676631087 24.008967445
6608 1 22.2305250168 2.6676631087 27.5658501672
6609 1 22.2305250168 2.6676631087 31.1227350235
6610 1 22.2305250168 2.6676631087 34.6796198799
6611 1 22.2305250168 6.224546898 2.6676631087
6612 1 22.2305250168 6.224546898 6.224546898
6613 1 22.2305250168 6.224546898 9.7814312208
6614 1 22.2305250168 6.224546898 13.3383150101
6615 1 22.2305250168 6.224546898 16.8951987994
6616 1 22.2305250168 6.224546898 20.4520825886
6617 1 22.2305250168 6.224546898 24.008967445
6618 1 22.2305250168 6.224546898 27.5658501672
6619 1 22.2305250168 6.224546898 31.1227350235
6620 1 22.2305250168 6.224546898 34.6796198799
6621 1 22.2305250168 9.7814312208 2.6676631087
6622 1 22.2305250168 9.7814312208 6.224546898
6623 1 22.2305250168 9.7814312208 9.7814312208
6624 1 22.2305250168 9.7814312208 13.3383150101
6625 1 22.2305250168 9.7814312208 16.8951987994
6626 1 22.2305250168 9.7814312208 20.4520825886
6627 1 22.2305250168 9.7814312208 24.008967445
6628 1 22.2305250168 9.7814312208 27.5658501672
6629 1 22.2305250168 9.7814312208 31.1227350235
6630 1 22.2305250168 9.7814312208 34.6796198799
6631 1 22.2305250168 13.3383150101 2.6676631087
6632 1 22.2305250168 13.3383150101 6.224546898
6633 1 22.2305250168 13.3383150101 9.7814312208
6634 1 22.2305250168 13.3383150101 13.3383150101
6635 1 22.2305250168 13.3383150101 16.8951987994
6636 1 22.2305250168 13.3383150101 20.4520825886
6637 1 22.2305250168 13.3383150101 24.008967445
6638 1 22.2305250168 13.3383150101 27.5658501672
6639 1 22.2305250168 13.3383150101 31.1227350235
6640 1 22.2305250168 13.3383150101 34.6796198799
6641 1 22.2305250168 16.8951987994 2.6676631087
6642 1 22.2305250168 16.8951987994 6.224546898
6643 1 22.2305250168 16.8951987994 9.7814312208
6644 1 22.2305250168 16.8951987994 13.3383150101
6645 1 22.2305250168 16.8951987994 16.8951987994
6646 1 22.2305250168 16.8951987994 20.4520825886
6647 1 22.2305250168 16.8951987994 24.008967445
6648 1 22.2305250168 16.8951987994 27.5658501672
6649 1 22.2305250168 16.8951987994 31.1227350235
6650 1 22.2305250168 16.8951987994 34.6796198799
6651 1 22.2305250168 20.4520825886 2.6676631087
6652 1 22.2305250168 20.4520825886 6.224546898
6653 1 22.2305250168 20.4520825886 9.7814312208
6654 1 22.2305250168 20.4520825886 13.3383150101
6655 1 22.2305250168 20.4520825886 16.8951987994
6656 1 22.2305250168 20.4520825886 20.4520825886
6657 1 22.2305250168 20.4520825886 24.008967445
6658 1 22.2305250168 20.4520825886 27.5658501672
6659 1 22.2305250168 20.4520825886 31.1227350235
6660 1 22.2305250168 20.4520825886 34.6796198799
6661 1 22.2305250168 24.008967445 2.6676631087
6662 1 22.2305250168 24.008967445 6.224546898
6663 1 22.2305250168 24.008967445 9.7814312208
6664 1 22.2305250168 24.008967445 13.3383150101
6665 1 22.2305250168 24.008967445 16.8951987994
6666 1 22.2305250168 24.008967445 20.4520825886
6667 1 22.2305250168 24.008967445 24.008967445
6668 1 22.2305250168 24.008967445 27.5658501672
6669 1 22.2305250168 24.008967445 31.1227350235
6670 1 22.2305250168 24.008967445 34.6796198799
6671 1 22.2305250168 27.5658501672 2.6676631087
6672 1 22.2305250168 27.5658501672 6.224546898
6673 1 22.2305250168 27.5658501672 9.7814312208
6674 1 22.2305250168 27.5658501672 13.3383150101
6675 1 22.2305250168 27.5658501672 16.8951987994
6676 1 22.2305250168 27.5658501672 20.4520825886
6677 1 22.2305250168 27.5658501672 24.008967445
6678 1 22.2305250168 27.5658501672 27.5658501672
6679 1 22.2305250168 27.5658501672 31.1227350235
6680 1 22.2305250168 27.5658501672 34.6796198799
6681 1 22.2305250168 31.1227350235 2.6676631087
6682 1 22.2305250168 31.1227350235 6.224546898
6683 1 22.2305250168 31.1227350235 9.7814312208
6684 1 22.2305250168 31.1227350235 13.3383150101
6685 1 22.2305250168 31.1227350235 16.8951987994
6686 1 22.2305250168 31.1227350235 20.4520825886
6687 1 22.2305250168 31.1227350235 24.008967445
6688 1 22.2305250168 31.1227350235 27.5658501672
6689 1 22.2305250168 31.1227350235 31.1227350235
6690 1 22.2305250168 31.1227350235 34.6796198799
6691 1 22.2305250168 34.6796198799 2.6676631087
6692 1 22.2305250168 34.6796198799 6.224546898
6693 1 22.2305250168 34.6796198799 9.7814312208
6694 1 22.2305250168 34.6796198799 13.3383150101
6695 1 22.2305250168 34.6796198799 16.8951987994
6696 1 22.2305250168 34.6796198799 20.4520825886
6697 1 22.2305250168 34.6796198799 24.008967445
6698 1 22.2305250168 34.6796198799 27.5658501672
6699 1 22.2305250168 34.6796198799 31.1227350235
6700 1 22.2305250168 34.6796198799 34.6796198799
6701 1 25.7874098732 2.6676631087 2.6676631087
6702 1 25.7874098732 2.6676631087 6.224546898
6703 1 25.7874098732 2.6676631087 9.7814312208
6704 1 25.7874098732 2.6676631087 13.3383150101
6705 1 25.7874098732 2.6676631087 16.8951987994
6706 1 25.7874098732 2.6676631087 20.4520825886
6707 1 25.7874098732 2.6676631087 24.008967445
6708 1 25.7874098732 2.6676631087 27.5658501672
6709 1 25.7874098732 2.6676631087 31.1227350235
6710 1 25.7874098732 2.6676631087 34.6796198799
6711 1 25.7874098732 6.224546898 2.6676631087
6712 1 25.7874098732 6.224546898 6.224546898
6713 1 25.7874098732 6.224546898 9.7814312208
6714 1 25.7874098732 6.224546898 13.3383150101
6715 1 25.7874098732 6.224546898 16.8951987994
6716 1 25.7874098732 6.224546898 20.4520825886
6717 1 25.7874098732 6.224546898 24.008967445
6718 1 25.7874098732 6.224546898 27.5658501672
6719 1 25.7874098732 6.224546898 31.1227350235
6720 1 25.7874098732 6.224546898 34.6796198799
6721 1 25.7874098732 9.7814312208 2.6676631087
6722 1 25.7874098732 9.7814312208 6.224546898
6723 1 25.7874098732 9.7814312208 9.7814312208
6724 1 25.7874098732 9.7814312208 13.3383150101
6725 1 25.7874098732 9.7814312208 16.8951987994
6726 1 25.7874098732 9.7814312208 20.4520825886
6727 1 25.7874098732 9.7814312208 24.008967445
6728 1 25.7874098732 9.7814312208 27.5658501672
6729 1 25.7874098732 9.7814312208 31.1227350235
6730 1 25.7874098732 9.7814312208 34.6796198799
6731 1 25.7874098732 13.3383150101 2.6676631087
6732 1 25.7874098732 13.3383150101 6.224546898
6733 1 25.7874098732 13.3383150101 9.7814312208
6734 1 25.7874098732 13.3383150101 13.3383150101
6735 1 25.7874098732 13.3383150101 16.8951987994
6736 1 25.7874098732 13.3383150101 20.4520825886
6737 1 25.7874098732 13.3383150101 24.008967445
6738 1 25.7874098732 13.3383150101 27.5658501672
6739 1 25.7874098732 13.3383150101 31.1227350235
6740 1 25.7874098732 13.3383150101 34.6796198799
6741 1 25.7874098732 16.8951987994 2.6676631087
6742 1 25.7874098732 16.8951987994 6.224546898
6743 1 25.7874098732 16.8951987994 9.7814312208
6744 1 25.7874098732 16.8951987994 13.3383150101
6745 1 25.7874098732 16.8951987994 16.8951987994
6746 1 25.7874098732 16.8951987994 20.4520825886
6747 1 25.7874098732 16.8951987994 24.008967445
6748 1 25.7874098732 16.8951987994 27.5658501672
6749 1 25.7874098732 16.8951987994 31.1227350235
6750 1 25.7874098732 16.8951987994 34.6796198799
6751 1 25.7874098732 20.4520825886 2.6676631087
6752 1 25.7874098732 20.4520825886 6.224546898
6753 1 25.7874098732 20.4520825886 9.7814312208
6754 1 25.7874098732 20.4520825886 13.3383150101
6755 1 25.7874098732 20.4520825886 16.8951987994
6756 1 25.7874098732 20.4520825886 20.4520825886
6757 1 25.7874098732 20.4520825886 24.008967445
6758 1 25.7874098732 20.4520825886 27.5658501672
6759 1 25.7874098732 20.4520825886 31.1227350235
6760 1 25.7874098732 20.4520825886 34.6796198799
6761 1 25.7874098732 24.008967445 2.6676631087
6762 1 25.7874098732 24.008967445 6.224546898
6763 1 25.7874098732 24.008967445 9.7814312208
6764 1 25.7874098732 24.008967445 13.3383150101
6765 1 25.7874098732 24.008967445 16.8951987994
6766 1 25.7874098732 24.008967445 20.4520825886
6767 1 25.7874098732 24.008967445 24.008967445
6768 1 25.7874098732 24.008967445 27.5658501672
6769 1 25.7874098732 24.008967445 31.1227350235
6770 1 25.7874098732 24.008967445 34.6796198799
6771 1 25.7874098732 27.5658501672 2.6676631087
6772 1 25.7874098732 27.5658501672 6.224546898
6773 1 25.7874098732 27.5658501672 9.7814312208
6774 1 25.7874098732 27.5658501672 13.3383150101
6775 1 25.7874098732 27.5658501672 16.8951987994
6776 1 25.7874098732 27.5658501672 20.4520825886
6777 1 25.7874098732 27.5658501672 24.008967445
6778 1 25.7874098732 27.5658501672 27.5658501672
6779 1 25.7874098732 27.5658501672 31.1227350235
6780 1 25.7874098732 27.5658501672 34.6796198799
6781 1 25.7874098732 31.1227350235 2.6676631087
6782 1 25.7874098732 31.1227350235 6.224546898
6783 1 25.7874098732 31.1227350235 9.7814312208
6784 1 25.7874098732 31.1227350235 13.3383150101
6785 1 25.7874098732 31.1227350235 16.8951987994
6786 1 25.7874098732 31.1227350235 20.4520825886
6787 1 25.7874098732 31.1227350235 24.008967445
6788 1 25.7874098732 31.1227350235 27.5658501672
6789 1 25.7874098732 31.1227350235 31.1227350235
6790 1 25.7874098732 31.1227350235 34.6796198799
6791 1 25.7874098732 34.6796198799 2.6676631087
6792 1 25.7874098732 34.6796198799 6.224546898
6793 1 25.7874098732 34.6796198799 9.7814312208
6794 1 25.7874098732 34.6796198799 13.3383150101
6795 1 25.7874098732 34.6796198799 16.8951987994
6796 1 25.7874098732 34.6796198799 20.4520825886
6797 1 25.7874098732 34.6796198799 24.008967445
6798 1 25.7874098732 34.6796198799 27.5658501672
6799 1 25.7874098732 34.6796198799 31.1227350235
6800 1 25.7874098732 34.6796198799 34.6796198799
6801 1 29.3442925954 2.6676631087 2.6676631087
6802 1 29.3442925954 2.6676631087 6.224546898
6803 1 29.3442925954 2.6676631087 9.7814312208
6804 1 29.3442925954 2.6676631087 13.3383150101
6805 1 29.3442925954 2.6676631087 16.8951987994
6806 1 29.3442925954 2.6676631087 20.4520825886
6807 1 29.3442925954 2.6676631087 24.008967445
6808 1 29.3442925954 2.6676631087 27.5658501672
6809 1 29.3442925954 2.6676631087 31.1227350235
6810 1 29.3442925954 2.6676631087 34.6796198799
6811 1 29.3442925954 6.224546898 2.6676631087
6812 1 29.3442925954 6.224546898 6.224546898
6813 1 29.3442925954 6.224546898 9.7814312208
6814 1 29.3442925954 6.224546898 13.3383150101
6815 1 29.3442925954 6.224546898 16.8951987994
6816 1 29.3442925954 6.224546898 20.4520825886
6817 1 29.3442925954 6.224546898 24.008967445
6818 1 29.3442925954 6.224546898 27.5658501672
6819 1 29.3442925954 6.224546898 31.1227350235
6820 1 29.3442925954 6.224546898 34.6796198799
6821 1 29.3442925954 9.7814312208 2.6676631087
6822 1 29.3442925954 9.7814312208 6.224546898
6823 1 29.3442925954 9.7814312208 9.7814312208
6824 1 29.3442925954 9.7814312208 13.3383150101
6825 1 29.3442925954 9.7814312208 16.8951987994
6826 1 29.3442925954 9.7814312208 20.4520825886
6827 1 29.3442925954 9.7814312208 24.008967445
6828 1 29.3442925954 9.7814312208 27.5658501672
6829 1 29.3442925954 9.7814312208 31.1227350235
6830 1 29.3442925954 9.7814312208 34.6796198799
6831 1 29.3442925954 13.3383150101 2.6676631087
6832 1 29.3442925954 13.3383150101 6.224546898
6833 1 29.3442925954 13.3383150101 9.7814312208
6834 1 29.3442925954 13.3383150101 13.3383150101
6835 1 29.3442925954 13.3383150101 16.8951987994
6836 1 29.3442925954 13.3383150101 20.4520825886
6837 1 29.3442925954 13.3383150101 24.008967445
6838 1 29.3442925954 13.3383150101 27.5658501672
6839 1 29.3442925954 13.3383150101 31.1227350235
6840 1 29.3442925954 13.3383150101 34.6796198799
6841 1 29.3442925954 16.8951987994 2.6676631087
6842 1 29.3442925954 16.8951987994 6.224546898
6843 1 29.3442925954 16.8951987994 9.7814312208
6844 1 29.3442925954 16.8951987994 13.3383150101
6845 1 29.3442925954 16.8951987994 16.8951987994
6846 1 29.3442925954 16.8951987994 20.4520825886
6847 1 29.3442925954 16.8951987994 24.008967445
6848 1 29.3442925954 16.8951987994 27.5658501672
6849 1 29.3442925954 16.8951987994 31.1227350235
6850 1 29.3442925954 16.8951987994 34.6796198799
6851 1 29.3442925954 20.4520825886 2.6676631087
6852 1 29.3442925954 20.4520825886 6.224546898
6853 1 29.3442925954 20.4520825886 9.7814312208
6854 1 29.3442925954 20.4520825886 13.3383150101
6855 1 29.3442925954 20.4520825886 16.8951987994
6856 1 29.3442925954 20.4520825886 20.4520825886
6857 1 29.3442925954 20.4520825886 24.008967445
6858 1 29.3442925954 20.4520825886 27.5658501672
6859 1 29.3442925954 20.4520825886 31.1227350235
6860 1 29.3442925954 20.4520825886 34.6796198799
6861 1 29.3442925954 24.008967445 2.6676631087
6862 1 29.3442925954 24.008967445 6.224546898
6863 1 29.3442925954 24.008967445 9.7814312208
6864 1 29.3442925954 24.008967445 13.3383150101
6865 1 29.3442925954 24.008967445 16.8951987994
6866 1 29.3442925954 24.008967445 20.4520825886
6867 1 29.3442925954 24.008967445 24.008967445
6868 1 29.3442925954 24.008967445 27.5658501672
6869 1 29.3442925954 24.008967445 31.1227350235
6870 1 29.3442925954 24.008967445 34.6796198799
6871 1 29.3442925954 27.5658501672 2.6676631087
6872 1 29.3442925954 27.5658501672 6.224546898
6873 1 29.3442925954 27.5658501672 9.7814312208
6874 1 29.3442925954 27.5658501672 13.3383150101
6875 1 29.3442925954 27.5658501672 16.8951987994
6876 1 29.3442925954 27.5658501672 20.4520825886
6877 1 29.3442925954 27.5658501672 24.008967445
6878 1 29.3442925954 27.5658501672 27.5658501672
6879 1 29.3442925954 27.5658501672 31.1227350235
6880 1 29.3442925954 27.5658501672 34.6796198799
6881 1 29.3442925954 31.1227350235 2.6676631087
6882 1 29.3442925954 31.1227350235 6.224546898
6883 1 29.3442925954 31.1227350235 9.7814312208
6884 1 29.3442925954 31.1227350235 13.3383150101
6885 1 29.3442925954 31.1227350235 16.8951987994
6886 1 29.3442925954 31.1227350235 20.4520825886
6887 1 29.3442925954 31.1227350235 24.008967445
6888 1 29.3442925954 31.1227350235 27.5658501672
6889 1 29.3442925954 31.1227350235 31.1227350235
6890 1 29.3442925954 31.1227350235 34.6796198799
6891 1 29.3442925954 34.6796198799 2.6676631087
6892 1 29.3442925954 34.6796198799 6.224546898
6893 1 29.3442925954 34.6796198799 9.7814312208
6894 1 29.3442925954 34.6796198799 13.3383150101
6895 1 29.3442925954 34.6796198799 16.8951987994
6896 1 29.3442925954 34.6796198799 20.4520825886
6897 1 29.3442925954 34.6796198799 24.008967445
6898 1 29.3442925954 34.6796198799 27.5658501672
6899 1 29.3442925954 34.6796198799 31.1227350235
6900 1 29.3442925954 34.6796198799 34.6796198799
6901 1 32.9011774517 2.6676631087 2.6676631087
6902 1 32.9011774517 2.6676631087 6.224546898
6903 1 32.9011774517 2.6676631087 9.7814312208
6904 1 32.9011774517 2.6676631087 13.3383150101
6905 1 32.9011774517 2.6676631087 16.8951987994
6906 1 32.9011774517 2.6676631087 20.4520825886
6907 1 32.9011774517 2.6676631087 24.008967445
6908 1 32.9011774517 2.6676631087 27.5658501672
6909 1 32.9011774517 2.6676631087 31.1227350235
6910 1 32.9011774517 2.6676631087 34.6796198799
6911 1 32.9011774517 6.224546898 2.6676631087
6912 1 32.9011774517 6.224546898 6.224546898
6913 1 32.9011774517 6.224546898 9.7814312208
6914 1 32.9011774517 6.224546898 13.3383150101
6915 1 32.9011774517 6.224546898 16.8951987994
6916 1 32.9011774517 6.224546898 20.4520825886
6917 1 32.9011774517 6.224546898 24.008967445
6918 1 32.9011774517 6.224546898 27.5658501672
6919 1 32.9011774517 6.224546898 31.1227350235
6920 1 32.9011774517 6.224546898 34.6796198799
6921 1 32.9011774517 9.7814312208 2.6676631087
6922 1 32.9011774517 9.7814312208 6.224546898
6923 1 32.9011774517 9.7814312208 9.7814312208
6924 1 32.9011774517 9.7814312208 13.3383150101
6925 1 32.9011774517 9.7814312208 16.8951987994
6926 1 32.9011774517 9.7814312208 20.4520825886
6927 1 32.9011774517 9.7814312208 24.008967445
6928 1 32.9011774517 9.7814312208 27.5658501672
6929 1 32.9011774517 9.7814312208 31.1227350235
6930 1 32.9011774517 9.7814312208 34.6796198799
6931 1 32.9011774517 13.3383150101 2.6676631087
6932 1 32.9011774517 13.3383150101 6.224546898
6933 1 32.9011774517 13.3383150101 9.7814312208
6934 1 32.9011774517 13.3383150101 13.3383150101
6935 1 32.9011774517 13.3383150101 16.8951987994
6936 1 32.9011774517 13.3383150101 20.4520825886
6937 1 32.9011774517 13.3383150101 24.008967445
6938 1 32.9011774517 13.3383150101 27.5658501672
6939 1 32.9011774517 13.3383150101 31.1227350235
6940 1 32.9011774517 13.3383150101 34.6796198799
6941 1 32.9011774517 16.8951987994 2.6676631087
6942 1 32.9011774517 16.8951987994 6.224546898
6943 1 32.9011774517 16.8951987994 9.7814312208
6944 1 32.9011774517 16.8951987994 13.3383150101
6945 1 32.9011774517 16.8951987994 16.8951987994
6946 1 32.9011774517 16.8951987994 20.4520825886
6947 1 32.9011774517 16.8951987994 24.008967445
6948 1 32.9011774517 16.8951987994 27.5658501672
6949 1 32.9011774517 16.8951987994 31.1227350235
6950 1 32.9011774517 16.8951987994 34.6796198799
6951 1 32.9011774517 20.4520825886 2.6676631087
6952 1 32.9011774517 20.4520825886 6.224546898
6953 1 32.9011774517 20.4520825886 9.7814312208
6954 1 32.9011774517 20.4520825886 13.3383150101
6955 1 32.9011774517 20.4520825886 16.8951987994
6956 1 32.9011774517 20.4520825886 20.4520825886
6957 1 32.9011774517 20.4520825886 24.008967445
6958 1 32.9011774517 20.4520825886 27.5658501672
6959 1 32.9011774517 20.4520825886 31.1227350235
6960 1 32.9011774517 20.4520825886 34.6796198799
6961 1 32.9011774517 24.008967445 2.6676631087
6962 1 32.9011774517 24.008967445 6.224546898
6963 1 32.9011774517 24.008967445 9.7814312208
6964 1 32.9011774517 24.008967445 13.3383150101
6965 1 32.9011774517 24.008967445 16.8951987994
6966 1 32.9011774517 24.008967445 20.4520825886
6967 1 32.9011774517 24.008967445 24.008967445
6968 1 32.9011774517 24.008967445 27.5658501672
6969 1 32.9011774517 24.008967445 31.1227350235
6970 1 32.9011774517 24.008967445 34.6796198799
6971 1 32.9011774517 27.5658501672 2.6676631087
6972 1 32.9011774517 27.5658501672 6.224546898
6973 1 32.9011774517 27.5658501672 9.7814312208
6974 1 32.9011774517 27.5658501672 13.3383150101
6975 1 32.9011774517 27.5658501672 16.8951987994
6976 1 32.9011774517 27.5658501672 20.4520825886
6977 1 32.9011774517 27.5658501672 24.008967445
6978 1 32.9011774517 27.5658501672 27.5658501672
6979 1 32.9011774517 27.5658501672 31.1227350235
6980 1 32.9011774517 27.5658501672 34.6796198799
6981 1 32.9011774517 31.1227350235 2.6676631087
6982 1 32.9011774517 31.1227350235 6.224546898
6983 1 32.9011774517 31.1227350235 9.7814312208
6984 1 32.9011774517 31.1227350235 13.3383150101
6985 1 32.9011774517 31.1227350235 16.8951987994
6986 1 32.9011774517 31.1227350235 20.4520825886
6987 1 32.9011774517 31.1227350235 24.008967445
6988 1 32.9011774517 31.1227350235 27.5658501672
6989 1 32.9011774517 31.1227350235 31.1227350235
6990 1 32.9011774517 31.1227350235 34.6796198799
6991 1 32.9011774517 34.6796198799 2.6676631087
6992 1 32.9011774517 34.6796198799 6.224546898
6993 1 32.9011774517 34.6796198799 9.7814312208
6994 1 32.9011774517 34.6796198799 13.3383150101
6995 1 32.9011774517 34.6796198799 16.8951987994
6996 1 32.9011774517 34.6796198799 20.4520825886
6997 1 32.9011774517 34.6796198799 24.008967445
6998 1 32.9011774517 34.6796198799 27.5658501672
6999 1 32.9011774517 34.6796198799 31.1227350235
7000 1 32.9011774517 34.6796198799 34.6796198799
7001 1 2.6676631087 2.6676631087 0.8892210007
7002 1 2.6676631087 2.6676631087 4.4461050034
7003 1 2.6676631087 2.6676631087 8.0029887926
7004 1 2.6676631087 2.6676631087 11.5598725819
7005 1 2.6676631087 2.6676631087 15.1167574383
7006 1 2.6676631087 2.6676631087 18.6736401605
7007 1 2.6676631087 2.6676631087 22.2305250168
7008 1 2.6676631087 2.6676631087 25.7874098732
7009 1 2.6676631087 2.6676631087 29.3442925954
7010 1 2.6676631087 2.6676631087 32.9011774517
7011 1 2.6676631087 6.224546898 0.8892210007
7012 1 2.6676631087 6.224546898 4.4461050034
7013 1 2.6676631087 6.224546898 8.0029887926
7014 1 2.6676631087 6.224546898 11.5598725819
7015 1 2.6676631087 6.224546898 15.1167574383
7016 1 2.6676631087 6.224546898 18.6736401605
7017 1 2.6676631087 6.224546898 22.2305250168
7018 1 2.6676631087 6.224546898 25.7874098732
7019 1 2.6676631087 6.224546898 29.3442925954
7020 1 2.6676631087 6.224546898 32.9011774517
7021 1 2.6676631087 9.7814312208 0.8892210007
7022 1 2.6676631087 9.7814312208 4.4461050034
7023 1 2.6676631087 9.7814312208 8.0029887926
7024 1 2.6676631087 9.7814312208 11.5598725819
7025 1 2.6676631087 9.7814312208 15.1167574383
7026 1 2.6676631087 9.7814312208 18.6736401605
7027 1 2.6676631087 9.7814312208 22.2305250168
7028 1 2.6676631087 9.7814312208 25.7874098732
7029 1 2.6676631087 9.7814312208 29.3442925954
7030 1 2.6676631087 9.7814312208 32.9011774517
7031 1 2.6676631087 13.3383150101 0.8892210007
7032 1 2.6676631087 13.3383150101 4.4461050034
7033 1 2.6676631087 13.3383150101 8.0029887926
7034 1 2.6676631087 13.3383150101 11.5598725819
7035 1 2.6676631087 13.3383150101 15.1167574383
7036 1 2.6676631087 13.3383150101 18.6736401605
7037 1 2.6676631087 13.3383150101 22.2305250168
7038 1 2.6676631087 13.3383150101 25.7874098732
7039 1 2.6676631087 13.3383150101 29.3442925954
7040 1 2.6676631087 13.3383150101 32.9011774517
7041 1 2.6676631087 16.8951987994 0.8892210007
7042 1 2.6676631087 16.8951987994 4.4461050034
7043 1 2.6676631087 16.8951987994 8.0029887926
7044 1 2.6676631087 16.8951987994 11.5598725819
7045 1 2.6676631087 16.8951987994 15.1167574383
7046 1 2.6676631087 16.8951987994 18.6736401605
7047 1 2.6676631087 16.8951987994 22.2305250168
7048 1 2.6676631087 16.8951987994 25.7874098732
7049 1 2.6676631087 16.8951987994 29.3442925954
7050 1 2.6676631087 16.8951987994 32.9011774517
7051 1 2.6676631087 20.4520825886 0.8892210007
7052 1 2.6676631087 20.4520825886 4.4461050034
7053 1 2.6676631087 20.4520825886 8.0029887926
7054 1 2.6676631087 20.4520825886 11.5598725819
7055 1 2.6676631087 20.4520825886 15.1167574383
7056 1 2.6676631087 20.4520825886 18.6736401605
7057 1 2.6676631087 20.4520825886 22.2305250168
7058 1 2.6676631087 20.4520825886 25.7874098732
7059 1 2.6676631087 20.4520825886 29.3442925954
7060 1 2.6676631087 20.4520825886 32.9011774517
7061 1 2.6676631087 24.008967445 0.8892210007
7062 1 2.6676631087 24.008967445 4.4461050034
7063 1 2.6676631087 24.008967445 8.0029887926
7064 1 2.6676631087 24.008967445 11.5598725819
7065 1 2.6676631087 24.008967445 15.1167574383
7066 1 2.6676631087 24.008967445 18.6736401605
7067 1 2.6676631087 24.008967445 22.2305250168
7068 1 2.6676631087 24.008967445 25.7874098732
7069 1 2.6676631087 24.008967445 29.3442925954
7070 1 2.6676631087 24.008967445 32.9011774517
7071 1 2.6676631087 27.5658501672 0.8892210007
7072 1 2.6676631087 27.5658501672 4.4461050034
7073 1 2.6676631087 27.5658501672 8.0029887926
7074 1 2.6676631087 27.5658501672 11.5598725819
7075 1 2.6676631087 27.5658501672 15.1167574383
7076 1 2.6676631087 27.5658501672 18.6736401605
7077 1 2.6676631087 27.5658501672 22.2305250168
7078 1 2.6676631087 27.5658501672 25.7874098732
7079 1 2.6676631087 27.5658501672 29.3442925954
7080 1 2.6676631087 27.5658501672 32.9011774517
7081 1 2.6676631087 31.1227350235 0.8892210007
7082 1 2.6676631087 31.1227350235 4.4461050034
7083 1 2.6676631087 31.1227350235 8.0029887926
7084 1 2.6676631087 31.1227350235 11.5598725819
7085 1 2.6676631087 31.1227350235 15.1167574383
7086 1 2.6676631087 31.1227350235 18.6736401605
7087 1 2.6676631087 31.1227350235 22.2305250168
7088 1 2.6676631087 31.1227350235 25.7874098732
7089 1 2.6676631087 31.1227350235 29.3442925954
7090 1 2.6676631087 31.1227350235 32.9011774517
7091 1 2.6676631087 34.6796198799 0.8892210007
7092 1 2.6676631087 34.6796198799 4.4461050034
7093 1 2.6676631087 34.6796198799 8.0029887926
7094 1 2.6676631087 34.6796198799 11.5598725819
7095 1 2.6676631087 34.6796198799 15.1167574383
7096 1 2.6676631087 34.6796198799 18.6736401605
7097 1 2.6676631087 34.6796198799 22.2305250168
7098 1 2.6676631087 34.6796198799 25.7874098732
7099 1 2.6676631087 34.6796198799 29.3442925954
7100 1 2.6676631087 34.6796198799 32.9011774517
7101 1 6.224546898 2.6676631087 0.8892210007
7102 1 6.224546898 2.6676631087 4.4461050034
7103 1 6.224546898 2.6676631087 8.0029887926
7104 1 6.224546898 2.6676631087 11.5598725819
7105 1 6.224546898 2.6676631087 15.1167574383
7106 1 6.224546898 2.6676631087 18.6736401605
7107 1 6.224546898 2.6676631087 22.2305250168
7108 1 6.224546898 2.6676631087 25.7874098732
7109 1 6.224546898 2.6676631087 29.3442925954
7110 1 6.224546898 2.6676631087 32.9011774517
7111 1 6.224546898 6.224546898 0.8892210007
7112 1 6.224546898 6.224546898 4.4461050034
7113 1 6.224546898 6.224546898 8.0029887926
7114 1 6.224546898 6.224546898 11.5598725819
7115 1 6.224546898 6.224546898 15.1167574383
7116 1 6.224546898 6.224546898 18.6736401605
7117 1 6.224546898 6.224546898 22.2305250168
7118 1 6.224546898 6.224546898 25.7874098732
7119 1 6.224546898 6.224546898 29.3442925954
7120 1 6.224546898 6.224546898 32.9011774517
7121 1 6.224546898 9.7814312208 0.8892210007
7122 1 6.224546898 9.7814312208 4.4461050034
7123 1 6.224546898 9.7814312208 8.0029887926
7124 1 6.224546898 9.7814312208 11.5598725819
7125 1 6.224546898 9.7814312208 15.1167574383
7126 1 6.224546898 9.7814312208 18.6736401605
7127 1 6.224546898 9.7814312208 22.2305250168
7128 1 6.224546898 9.7814312208 25.7874098732
7129 1 6.224546898 9.7814312208 29.3442925954
7130 1 6.224546898 9.7814312208 32.9011774517
7131 1 6.224546898 13.3383150101 0.8892210007
7132 1 6.224546898 13.3383150101 4.4461050034
7133 1 6.224546898 13.3383150101 8.0029887926
7134 1 6.224546898 13.3383150101 11.5598725819
7135 1 6.224546898 13.3383150101 15.1167574383
7136 1 6.224546898 13.3383150101 18.6736401605
7137 1 6.224546898 13.3383150101 22.2305250168
7138 1 6.224546898 13.3383150101 25.7874098732
7139 1 6.224546898 13.3383150101 29.3442925954
7140 1 6.224546898 13.3383150101 32.9011774517
7141 1 6.224546898 16.8951987994 0.8892210007
7142 1 6.224546898 16.8951987994 4.4461050034
7143 1 6.224546898 16.8951987994 8.0029887926
7144 1 6.224546898 16.8951987994 11.5598725819
7145 1 6.224546898 16.8951987994 15.1167574383
7146 1 6.224546898 16.8951987994 18.6736401605
7147 1 6.224546898 16.8951987994 22.2305250168
7148 1 6.224546898 16.8951987994 25.7874098732
7149 1 6.224546898 16.8951987994 29.3442925954
7150 1 6.224546898 16.8951987994 32.9011774517
7151 1 6.224546898 20.4520825886 0.8892210007
7152 1 6.224546898 20.4520825886 4.4461050034
7153 1 6.224546898 20.4520825886 8.0029887926
7154 1 6.224546898 20.4520825886 11.5598725819
7155 1 6.224546898 20.4520825886 15.1167574383
7156 1 6.224546898 20.4520825886 18.6736401605
7157 1 6.224546898 20.4520825886 22.2305250168
7158 1 6.224546898 20.4520825886 25.7874098732
7159 1 6.224546898 20.4520825886 29.3442925954
7160 1 6.224546898 20.4520825886 32.9011774517
7161 1 6.224546898 24.008967445 0.8892210007
7162 1 6.224546898 24.008967445 4.4461050034
7163 1 6.224546898 24.008967445 8.0029887926
7164 1 6.224546898 24.008967445 11.5598725819
7165 1 6.224546898 24.008967445 15.1167574383
7166 1 6.224546898 24.008967445 18.6736401605
7167 1 6.224546898 24.008967445 22.2305250168
7168 1 6.224546898 24.008967445 25.7874098732
7169 1 6.224546898 24.008967445 29.3442925954
7170 1 6.224546898 24.008967445 32.9011774517
7171 1 6.224546898 27.5658501672 0.8892210007
7172 1 6.224546898 27.5658501672 4.4461050034
7173 1 6.224546898 27.5658501672 8.0029887926
7174 1 6.224546898 27.5658501672 11.5598725819
7175 1 6.224546898 27.5658501672 15.1167574383
7176 1 6.224546898 27.5658501672 18.6736401605
7177 1 6.224546898 27.5658501672 22.2305250168
7178 1 6.224546898 27.5658501672 25.7874098732
7179 1 6.224546898 27.5658501672 29.3442925954
7180 1 6.224546898 27.5658501672 32.9011774517
7181 1 6.224546898 31.1227350235 0.8892210007
7182 1 6.224546898 31.1227350235 4.4461050034
7183 1 6.224546898 31.1227350235 8.0029887926
7184 1 6.224546898 31.1227350235 11.5598725819
7185 1 6.224546898 31.1227350235 15.1167574383
7186 1 6.224546898 31.1227350235 18.6736401605
7187 1 6.224546898 31.1227350235 22.2305250168
7188 1 6.224546898 31.1227350235 25.7874098732
7189 1 6.224546898 31.1227350235 29.3442925954
7190 1 6.224546898 31.1227350235 32.9011774517
7191 1 6.224546898 34.6796198799 0.8892210007
7192 1 6.224546898 34.6796198799 4.4461050034
7193 1 6.224546898 34.6796198799 8.0029887926
7194 1 6.224546898 34.6796198799 11.5598725819
7195 1 6.224546898 34.6796198799 15.1167574383
7196 1 6.224546898 34.6796198799 18.6736401605
7197 1 6.224546898 34.6796198799 22.2305250168
7198 1 6.224546898 34.6796198799 25.7874098732
7199 1 6.224546898 34.6796198799 29.3442925954
7200 1 6.224546898 34.6796198799 32.9011774517
7201 1 9.7814312208 2.6676631087 0.8892210007
7202 1 9.7814312208 2.6676631087 4.4461050034
7203 1 9.7814312208 2.6676631087 8.0029887926
7204 1 9.7814312208 2.6676631087 11.5598725819
7205 1 9.7814312208 2.6676631087 15.1167574383
7206 1 9.7814312208 2.6676631087 18.6736401605
7207 1 9.7814312208 2.6676631087 22.2305250168
7208 1 9.7814312208 2.6676631087 25.7874098732
7209 1 9.7814312208 2.6676631087 29.3442925954
7210 1 9.7814312208 2.6676631087 32.9011774517
7211 1 9.7814312208 6.224546898 0.8892210007
7212 1 9.7814312208 6.224546898 4.4461050034
7213 1 9.7814312208 6.224546898 8.0029887926
7214 1 9.7814312208 6.224546898 11.5598725819
7215 1 9.7814312208 6.224546898 15.1167574383
7216 1 9.7814312208 6.224546898 18.6736401605
7217 1 9.7814312208 6.224546898 22.2305250168
7218 1 9.7814312208 6.224546898 25.7874098732
7219 1 9.7814312208 6.224546898 29.3442925954
7220 1 9.7814312208 6.224546898 32.9011774517
7221 1 9.7814312208 9.7814312208 0.8892210007
7222 1 9.7814312208 9.7814312208 4.4461050034
7223 1 9.7814312208 9.7814312208 8.0029887926
7224 1 9.7814312208 9.7814312208 11.5598725819
7225 1 9.7814312208 9.7814312208 15.1167574383
7226 1 9.7814312208 9.7814312208 18.6736401605
7227 1 9.7814312208 9.7814312208 22.2305250168
7228 1 9.7814312208 9.7814312208 25.7874098732
7229 1 9.7814312208 9.7814312208 29.3442925954
7230 1 9.7814312208 9.7814312208 32.9011774517
7231 1 9.7814312208 13.3383150101 0.8892210007
7232 1 9.7814312208 13.3383150101 4.4461050034
7233 1 9.7814312208 13.3383150101 8.0029887926
7234 1 9.7814312208 13.3383150101 11.5598725819
7235 1 9.7814312208 13.3383150101 15.1167574383
7236 1 9.7814312208 13.3383150101 18.6736401605
7237 1 9.7814312208 13.3383150101 22.2305250168
7238 1 9.7814312208 13.3383150101 25.7874098732
7239 1 9.7814312208 13.3383150101 29.3442925954
7240 1 9.7814312208 13.3383150101 32.9011774517
7241 1 9.7814312208 16.8951987994 0.8892210007
7242 1 9.7814312208 16.8951987994 4.4461050034
7243 1 9.7814312208 16.8951987994 8.0029887926
7244 1 9.7814312208 16.8951987994 11.5598725819
7245 1 9.7814312208 16.8951987994 15.1167574383
7246 1 9.7814312208 16.8951987994 18.6736401605
7247 1 9.7814312208 16.8951987994 22.2305250168
7248 1 9.7814312208 16.8951987994 25.7874098732
7249 1 9.7814312208 16.8951987994 29.3442925954
7250 1 9.7814312208 16.8951987994 32.9011774517
7251 1 9.7814312208 20.4520825886 0.8892210007
7252 1 9.7814312208 20.4520825886 4.4461050034
7253 1 9.7814312208 20.4520825886 8.0029887926
7254 1 9.7814312208 20.4520825886 11.5598725819
7255 1 9.7814312208 20.4520825886 15.1167574383
7256 1 9.7814312208 20.4520825886 18.6736401605
7257 1 9.7814312208 20.4520825886 22.2305250168
7258 1 9.7814312208 20.4520825886 25.7874098732
7259 1 9.7814312208 20.4520825886 29.3442925954
7260 1 9.7814312208 20.4520825886 32.9011774517
7261 1 9.7814312208 24.008967445 0.8892210007
7262 1 9.7814312208 24.008967445 4.4461050034
7263 1 9.7814312208 24.008967445 8.0029887926
7264 1 9.7814312208 24.008967445 11.5598725819
7265 1 9.7814312208 24.008967445 15.1167574383
7266 1 9.7814312208 24.008967445 18.6736401605
7267 1 9.7814312208 24.008967445 22.2305250168
7268 1 9.7814312208 24.008967445 25.7874098732
7269 1 9.7814312208 24.008967445 29.3442925954
7270 1 9.7814312208 24.008967445 32.9011774517
7271 1 9.7814312208 27.5658501672 0.8892210007
7272 1 9.7814312208 27.5658501672 4.4461050034
7273 1 9.7814312208 27.5658501672 8.0029887926
7274 1 9.7814312208 27.5658501672 11.5598725819
7275 1 9.7814312208 27.5658501672 15.1167574383
7276 1 9.7814312208 27.5658501672 18.6736401605
7277 1 9.7814312208 27.5658501672 22.2305250168
7278 1 9.7814312208 27.5658501672 25.7874098732
7279 1 9.7814312208 27.5658501672 29.3442925954
7280 1 9.7814312208 27.5658501672 32.9011774517
7281 1 9.7814312208 31.1227350235 0.8892210007
7282 1 9.7814312208 31.1227350235 4.4461050034
7283 1 9.7814312208 31.1227350235 8.0029887926
7284 1 9.7814312208 31.1227350235 11.5598725819
7285 1 9.7814312208 31.1227350235 15.1167574383
7286 1 9.7814312208 31.1227350235 18.6736401605
7287 1 9.7814312208 31.1227350235 22.2305250168
7288 1 9.7814312208 31.1227350235 25.7874098732
7289 1 9.7814312208 31.1227350235 29.3442925954
7290 1 9.7814312208 31.1227350235 32.9011774517
7291 1 9.7814312208 34.6796198799 0.8892210007
7292 1 9.7814312208 34.6796198799 4.4461050034
7293 1 9.7814312208 34.6796198799 8.0029887926
7294 1 9.7814312208 34.6796198799 11.5598725819
7295 1 9.7814312208 34.6796198799 15.1167574383
7296 1 9.7814312208 34.6796198799 18.6736401605
7297 1 9.7814312208 34.6796198799 22.2305250168
7298 1 9.7814312208 34.6796198799 25.7874098732
7299 1 9.7814312208 34.6796198799 29.3442925954
7300 1 9.7814312208 34.6796198799 32.9011774517
7301 1 13.3383150101 2.6676631087 0.8892210007
7302 1 13.3383150101 2.6676631087 4.4461050034
7303 1 13.3383150101 2.6676631087 8.0029887926
7304 1 13.3383150101 2.6676631087 11.5598725819
7305 1 13.3383150101 2.6676631087 15.1167574383
7306 1 13.3383150101 2.6676631087 18.6736401605
7307 1 13.3383150101 2.6676631087 22.2305250168
7308 1 13.3383150101 2.6676631087 25.7874098732
7309 1 13.3383150101 2.6676631087 29.3442925954
7310 1 13.3383150101 2.6676631087 32.9011774517
7311 1 13.3383150101 6.224546898 0.8892210007
7312 1 13.3383150101 6.224546898 4.4461050034
7313 1 13.3383150101 6.224546898 8.0029887926
7314 1 13.3383150101 6.224546898 11.5598725819
7315 1 13.3383150101 6.224546898 15.1167574383
7316 1 13.3383150101 6.224546898 18.6736401605
7317 1 13.3383150101 6.224546898 22.2305250168
7318 1 13.3383150101 6.224546898 25.7874098732
7319 1 13.3383150101 6.224546898 29.3442925954
7320 1 13.3383150101 6.224546898 32.9011774517
7321 1 13.3383150101 9.7814312208 0.8892210007
7322 1 13.3383150101 9.7814312208 4.4461050034
7323 1 13.3383150101 9.7814312208 8.0029887926
7324 1 13.3383150101 9.7814312208 11.5598725819
7325 1 13.3383150101 9.7814312208 15.1167574383
7326 1 13.3383150101 9.7814312208 18.6736401605
7327 1 13.3383150101 9.7814312208 22.2305250168
7328 1 13.3383150101 9.7814312208 25.7874098732
7329 1 13.3383150101 9.7814312208 29.3442925954
7330 1 13.3383150101 9.7814312208 32.9011774517
7331 1 13.3383150101 13.3383150101 0.8892210007
7332 1 13.3383150101 13.3383150101 4.4461050034
7333 1 13.3383150101 13.3383150101 8.0029887926
7334 1 13.3383150101 13.3383150101 11.5598725819
7335 1 13.3383150101 13.3383150101 15.1167574383
7336 1 13.3383150101 13.3383150101 18.6736401605
7337 1 13.3383150101 13.3383150101 22.2305250168
7338 1 13.3383150101 13.3383150101 25.7874098732
7339 1 13.3383150101 13.3383150101 29.3442925954
7340 1 13.3383150101 13.3383150101 32.9011774517
7341 1 13.3383150101 16.8951987994 0.8892210007
7342 1 13.3383150101 16.8951987994 4.4461050034
7343 1 13.3383150101 16.8951987994 8.0029887926
7344 1 13.3383150101 16.8951987994 11.5598725819
7345 1 13.3383150101 16.8951987994 15.1167574383
7346 1 13.3383150101 16.8951987994 18.6736401605
7347 1 13.3383150101 16.8951987994 22.2305250168
7348 1 13.3383150101 16.8951987994 25.7874098732
7349 1 13.3383150101 16.8951987994 29.3442925954
7350 1 13.3383150101 16.8951987994 32.9011774517
7351 1 13.3383150101 20.4520825886 0.8892210007
7352 1 13.3383150101 20.4520825886 4.4461050034
7353 1 13.3383150101 20.4520825886 8.0029887926
7354 1 13.3383150101 20.4520825886 11.5598725819
7355 1 13.3383150101 20.4520825886 15.1167574383
7356 1 13.3383150101 20.4520825886 18.6736401605
7357 1 13.3383150101 20.4520825886 22.2305250168
7358 1 13.3383150101 20.4520825886 25.7874098732
7359 1 13.3383150101 20.4520825886 29.3442925954
7360 1 13.3383150101 20.4520825886 32.9011774517
7361 1 13.3383150101 24.008967445 0.8892210007
7362 1 13.3383150101 24.008967445 4.4461050034
7363 1 13.3383150101 24.008967445 8.0029887926
7364 1 13.3383150101 24.008967445 11.5598725819
7365 1 13.3383150101 24.008967445 15.1167574383
7366 1 13.3383150101 24.008967445 18.6736401605
7367 1 13.3383150101 24.008967445 22.2305250168
7368 1 13.3383150101 24.008967445 25.7874098732
7369 1 13.3383150101 24.008967445 29.3442925954
7370 1 13.3383150101 24.008967445 32.9011774517
7371 1 13.3383150101 27.5658501672 0.8892210007
7372 1 13.3383150101 27.5658501672 4.4461050034
7373 1 13.3383150101 27.5658501672 8.0029887926
7374 1 13.3383150101 27.5658501672 11.5598725819
7375 1 13.3383150101 27.5658501672 15.1167574383
7376 1 13.3383150101 27.5658501672 18.6736401605
7377 1 13.3383150101 27.5658501672 22.2305250168
7378 1 13.3383150101 27.5658501672 25.7874098732
7379 1 13.3383150101 27.5658501672 29.3442925954
7380 1 13.3383150101 27.5658501672 32.9011774517
7381 1 13.3383150101 31.1227350235 0.8892210007
7382 1 13.3383150101 31.1227350235 4.4461050034
7383 1 13.3383150101 31.1227350235 8.0029887926
7384 1 13.3383150101 31.1227350235 11.5598725819
7385 1 13.3383150101 31.1227350235 15.1167574383
7386 1 13.3383150101 31.1227350235 18.6736401605
7387 1 13.3383150101 31.1227350235 22.2305250168
7388 1 13.3383150101 31.1227350235 25.7874098732
7389 1 13.3383150101 31.1227350235 29.3442925954
7390 1 13.3383150101 31.1227350235 32.9011774517
7391 1 13.3383150101 34.6796198799 0.8892210007
7392 1 13.3383150101 34.6796198799 4.4461050034
7393 1 13.3383150101 34.6796198799 8.0029887926
7394 1 13.3383150101 34.6796198799 11.5598725819
7395 1 13.3383150101 34.6796198799 15.1167574383
7396 1 13.3383150101 34.6796198799 18.6736401605
7397 1 13.3383150101 34.6796198799 22.2305250168
7398 1 13.3383150101 34.6796198799 25.7874098732
7399 1 13.3383150101 34.6796198799 29.3442925954
7400 1 13.3383150101 34.6796198799 32.9011774517
7401 1 16.8951987994 2.6676631087 0.8892210007
7402 1 16.8951987994 2.6676631087 4.4461050034
7403 1 16.8951987994 2.6676631087 8.0029887926
7404 1 16.8951987994 2.6676631087 11.5598725819
7405 1 16.8951987994 2.6676631087 15.1167574383
7406 1 16.8951987994 2.6676631087 18.6736401605
7407 1 16.8951987994 2.6676631087 22.2305250168
7408 1 16.8951987994 2.6676631087 25.7874098732
7409 1 16.8951987994 2.6676631087 29.3442925954
7410 1 16.8951987994 2.6676631087 32.9011774517
7411 1 16.8951987994 6.224546898 0.8892210007
7412 1 16.8951987994 6.224546898 4.4461050034
7413 1 16.8951987994 6.224546898 8.0029887926
7414 1 16.8951987994 6.224546898 11.5598725819
7415 1 16.8951987994 6.224546898 15.1167574383
7416 1 16.8951987994 6.224546898 18.6736401605
7417 1 16.8951987994 6.224546898 22.2305250168
7418 1 16.8951987994 6.224546898 25.7874098732
7419 1 16.8951987994 6.224546898 29.3442925954
7420 1 16.8951987994 6.224546898 32.9011774517
7421 1 16.8951987994 9.7814312208 0.8892210007
7422 1 16.8951987994 9.7814312208 4.4461050034
7423 1 16.8951987994 9.7814312208 8.0029887926
7424 1 16.8951987994 9.7814312208 11.5598725819
7425 1 16.8951987994 9.7814312208 15.1167574383
7426 1 16.8951987994 9.7814312208 18.6736401605
7427 1 16.8951987994 9.7814312208 22.2305250168
7428 1 16.8951987994 9.7814312208 25.7874098732
7429 1 16.8951987994 9.7814312208 29.3442925954
7430 1 16.8951987994 9.7814312208 32.9011774517
7431 1 16.8951987994 13.3383150101 0.8892210007
7432 1 16.8951987994 13.3383150101 4.4461050034
7433 1 16.8951987994 13.3383150101 8.0029887926
7434 1 16.8951987994 13.3383150101 11.5598725819
7435 1 16.8951987994 13.3383150101 15.1167574383
7436 1 16.8951987994 13.3383150101 18.6736401605
7437 1 16.8951987994 13.3383150101 22.2305250168
7438 1 16.8951987994 13.3383150101 25.7874098732
7439 1 16.8951987994 13.3383150101 29.3442925954
7440 1 16.8951987994 13.3383150101 32.9011774517
7441 1 16.8951987994 16.8951987994 0.8892210007
7442 1 16.8951987994 16.8951987994 4.4461050034
7443 1 16.8951987994 16.8951987994 8.0029887926
7444 1 16.8951987994 16.8951987994 11.5598725819
7445 1 16.8951987994 16.8951987994 15.1167574383
7446 1 16.8951987994 16.8951987994 18.6736401605
7447 1 16.8951987994 16.8951987994 22.2305250168
7448 1 16.8951987994 16.8951987994 25.7874098732
7449 1 16.8951987994 16.8951987994 29.3442925954
7450 1 16.8951987994 16.8951987994 32.9011774517
7451 1 16.8951987994 20.4520825886 0.8892210007
7452 1 16.8951987994 20.4520825886 4.4461050034
7453 1 16.8951987994 20.4520825886 8.0029887926
7454 1 16.8951987994 20.4520825886 11.5598725819
7455 1 16.8951987994 20.4520825886 15.1167574383
7456 1 16.8951987994 20.4520825886 18.6736401605
7457 1 16.8951987994 20.4520825886 22.2305250168
7458 1 16.8951987994 20.4520825886 25.7874098732
7459 1 16.8951987994 20.4520825886 29.3442925954
7460 1 16.8951987994 20.4520825886 32.9011774517
7461 1 16.8951987994 24.008967445 0.8892210007
7462 1 16.8951987994 24.008967445 4.4461050034
7463 1 16.8951987994 24.008967445 8.0029887926
7464 1 16.8951987994 24.008967445 11.5598725819
7465 1 16.8951987994 24.008967445 15.1167574383
7466 1 16.8951987994 24.008967445 18.6736401605
7467 1 16.8951987994 24.008967445 22.2305250168
7468 1 16.8951987994 24.008967445 25.7874098732
7469 1 16.8951987994 24.008967445 29.3442925954
7470 1 16.8951987994 24.008967445 32.9011774517
7471 1 16.8951987994 27.5658501672 0.8892210007
7472 1 16.8951987994 27.5658501672 4.4461050034
7473 1 16.8951987994 27.5658501672 8.0029887926
7474 1 16.8951987994 27.5658501672 11.5598725819
7475 1 16.8951987994 27.5658501672 15.1167574383
7476 1 16.8951987994 27.5658501672 18.6736401605
7477 1 16.8951987994 27.5658501672 22.2305250168
7478 1 16.8951987994 27.5658501672 25.7874098732
7479 1 16.8951987994 27.5658501672 29.3442925954
7480 1 16.8951987994 27.5658501672 32.9011774517
7481 1 16.8951987994 31.1227350235 0.8892210007
7482 1 16.8951987994 31.1227350235 4.4461050034
7483 1 16.8951987994 31.1227350235 8.0029887926
7484 1 16.8951987994 31.1227350235 11.5598725819
7485 1 16.8951987994 31.1227350235 15.1167574383
7486 1 16.8951987994 31.1227350235 18.6736401605
7487 1 16.8951987994 31.1227350235 22.2305250168
7488 1 16.8951987994 31.1227350235 25.7874098732
7489 1 16.8951987994 31.1227350235 29.3442925954
7490 1 16.8951987994 31.1227350235 32.9011774517
7491 1 16.8951987994 34.6796198799 0.8892210007
7492 1 16.8951987994 34.6796198799 4.4461050034
7493 1 16.8951987994 34.6796198799 8.0029887926
7494 1 16.8951987994 34.6796198799 11.5598725819
7495 1 16.8951987994 34.6796198799 15.1167574383
7496 1 16.8951987994 34.6796198799 18.6736401605
7497 1 16.8951987994 34.6796198799 22.2305250168
7498 1 16.8951987994 34.6796198799 25.7874098732
7499 1 16.8951987994 34.6796198799 29.3442925954
7500 1 16.8951987994 34.6796198799 32.9011774517
7501 1 20.4520825886 2.6676631087 0.8892210007
7502 1 20.4520825886 2.6676631087 4.4461050034
7503 1 20.4520825886 2.6676631087 8.0029887926
7504 1 20.4520825886 2.6676631087 11.5598725819
7505 1 20.4520825886 2.6676631087 15.1167574383
7506 1 20.4520825886 2.6676631087 18.6736401605
7507 1 20.4520825886 2.6676631087 22.2305250168
7508 1 20.4520825886 2.6676631087 25.7874098732
7509 1 20.4520825886 2.6676631087 29.3442925954
7510 1 20.4520825886 2.6676631087 32.9011774517
7511 1 20.4520825886 6.224546898 0.8892210007
7512 1 20.4520825886 6.224546898 4.4461050034
7513 1 20.4520825886 6.224546898 8.0029887926
7514 1 20.4520825886 6.224546898 11.5598725819
7515 1 20.4520825886 6.224546898 15.1167574383
7516 1 20.4520825886 6.224546898 18.6736401605
7517 1 20.4520825886 6.224546898 22.2305250168
7518 1 20.4520825886 6.224546898 25.7874098732
7519 1 20.4520825886 6.224546898 29.3442925954
7520 1 20.4520825886 6.224546898 32.9011774517
7521 1 20.4520825886 9.7814312208 0.8892210007
7522 1 20.4520825886 9.7814312208 4.4461050034
7523 1 20.4520825886 9.7814312208 8.0029887926
7524 1 20.4520825886 9.7814312208 11.5598725819
7525 1 20.4520825886 9.7814312208 15.1167574383
7526 1 20.4520825886 9.7814312208 18.6736401605
7527 1 20.4520825886 9.7814312208 22.2305250168
7528 1 20.4520825886 9.7814312208 25.7874098732
7529 1 20.4520825886 9.7814312208 29.3442925954
7530 1 20.4520825886 9.7814312208 32.9011774517
7531 1 20.4520825886 13.3383150101 0.8892210007
7532 1 20.4520825886 13.3383150101 4.4461050034
7533 1 20.4520825886 13.3383150101 8.0029887926
7534 1 20.4520825886 13.3383150101 11.5598725819
7535 1 20.4520825886 13.3383150101 15.1167574383
7536 1 20.4520825886 13.3383150101 18.6736401605
7537 1 20.4520825886 13.3383150101 22.2305250168
7538 1 20.4520825886 13.3383150101 25.7874098732
7539 1 20.4520825886 13.3383150101 29.3442925954
7540 1 20.4520825886 13.3383150101 32.9011774517
7541 1 20.4520825886 16.8951987994 0.8892210007
7542 1 20.4520825886 16.8951987994 4.4461050034
7543 1 20.4520825886 16.8951987994 8.0029887926
7544 1 20.4520825886 16.8951987994 11.5598725819
7545 1 20.4520825886 16.8951987994 15.1167574383
7546 1 20.4520825886 16.8951987994 18.6736401605
7547 1 20.4520825886 16.8951987994 22.2305250168
7548 1 20.4520825886 16.8951987994 25.7874098732
7549 1 20.4520825886 16.8951987994 29.3442925954
7550 1 20.4520825886 16.8951987994 32.9011774517
7551 1 20.4520825886 20.4520825886 0.8892210007
7552 1 20.4520825886 20.4520825886 4.4461050034
7553 1 20.4520825886 20.4520825886 8.0029887926
7554 1 20.4520825886 20.4520825886 11.5598725819
7555 1 20.4520825886 20.4520825886 15.1167574383
7556 1 20.4520825886 20.4520825886 18.6736401605
7557 1 20.4520825886 20.4520825886 22.2305250168
7558 1 20.4520825886 20.4520825886 25.7874098732
7559 1 20.4520825886 20.4520825886 29.3442925954
7560 1 20.4520825886 20.4520825886 32.9011774517
7561 1 20.4520825886 24.008967445 0.8892210007
7562 1 20.4520825886 24.008967445 4.4461050034
7563 1 20.4520825886 24.008967445 8.0029887926
7564 1 20.4520825886 24.008967445 11.5598725819
7565 1 20.4520825886 24.008967445 15.1167574383
7566 1 20.4520825886 24.008967445 18.6736401605
7567 1 20.4520825886 24.008967445 22.2305250168
7568 1 20.4520825886 24.008967445 25.7874098732
7569 1 20.4520825886 24.008967445 29.3442925954
7570 1 20.4520825886 24.008967445 32.9011774517
7571 1 20.4520825886 27.5658501672 0.8892210007
7572 1 20.4520825886 27.5658501672 4.4461050034
7573 1 20.4520825886 27.5658501672 8.0029887926
7574 1 20.4520825886 27.5658501672 11.5598725819
7575 1 20.4520825886 27.5658501672 15.1167574383
7576 1 20.4520825886 27.5658501672 18.6736401605
7577 1 20.4520825886 27.5658501672 22.2305250168
7578 1 20.4520825886 27.5658501672 25.7874098732
7579 1 20.4520825886 27.5658501672 29.3442925954
7580 1 20.4520825886 27.5658501672 32.9011774517
7581 1 20.4520825886 31.1227350235 0.8892210007
7582 1 20.4520825886 31.1227350235 4.4461050034
7583 1 20.4520825886 31.1227350235 8.0029887926
7584 1 20.4520825886 31.1227350235 11.5598725819
7585 1 20.4520825886 31.1227350235 15.1167574383
7586 1 20.4520825886 31.1227350235 18.6736401605
7587 1 20.4520825886 31.1227350235 22.2305250168
7588 1 20.4520825886 31.1227350235 25.7874098732
7589 1 20.4520825886 31.1227350235 29.3442925954
7590 1 20.4520825886 31.1227350235 32.9011774517
7591 1 20.4520825886 34.6796198799 0.8892210007
7592 1 20.4520825886 34.6796198799 4.4461050034
7593 1 20.4520825886 34.6796198799 8.0029887926
7594 1 20.4520825886 34.6796198799 11.5598725819
7595 1 20.4520825886 34.6796198799 15.1167574383
7596 1 20.4520825886 34.6796198799 18.6736401605
7597 1 20.4520825886 34.6796198799 22.2305250168
7598 1 20.4520825886 34.6796198799 25.7874098732
7599 1 20.4520825886 34.6796198799 29.3442925954
7600 1 20.4520825886 34.6796198799 32.9011774517
7601 1 24.008967445 2.6676631087 0.8892210007
7602 1 24.008967445 2.6676631087 4.4461050034
7603 1 24.008967445 2.6676631087 8.0029887926
7604 1 24.008967445 2.6676631087 11.5598725819
7605 1 24.008967445 2.6676631087 15.1167574383
7606 1 24.008967445 2.6676631087 18.6736401605
7607 1 24.008967445 2.6676631087 22.2305250168
7608 1 24.008967445 2.6676631087 25.7874098732
7609 1 24.008967445 2.6676631087 29.3442925954
7610 1 24.008967445 2.6676631087 32.9011774517
7611 1 24.008967445 6.224546898 0.8892210007
7612 1 24.008967445 6.224546898 4.4461050034
7613 1 24.008967445 6.224546898 8.0029887926
7614 1 24.008967445 6.224546898 11.5598725819
7615 1 24.008967445 6.224546898 15.1167574383
7616 1 24.008967445 6.224546898 18.6736401605
7617 1 24.008967445 6.224546898 22.2305250168
7618 1 24.008967445 6.224546898 25.7874098732
7619 1 24.008967445 6.224546898 29.3442925954
7620 1 24.008967445 6.224546898 32.9011774517
7621 1 24.008967445 9.7814312208 0.8892210007
7622 1 24.008967445 9.7814312208 4.4461050034
7623 1 24.008967445 9.7814312208 8.0029887926
7624 1 24.008967445 9.7814312208 11.5598725819
7625 1 24.008967445 9.7814312208 15.1167574383
7626 1 24.008967445 9.7814312208 18.6736401605
7627 1 24.008967445 9.7814312208 22.2305250168
7628 1 24.008967445 9.7814312208 25.7874098732
7629 1 24.008967445 9.7814312208 29.3442925954
7630 1 24.008967445 9.7814312208 32.9011774517
7631 1 24.008967445 13.3383150101 0.8892210007
7632 1 24.008967445 13.3383150101 4.4461050034
7633 1 24.008967445 13.3383150101 8.0029887926
7634 1 24.008967445 13.3383150101 11.5598725819
7635 1 24.008967445 13.3383150101 15.1167574383
7636 1 24.008967445 13.3383150101 18.6736401605
7637 1 24.008967445 13.3383150101 22.2305250168
7638 1 24.008967445 13.3383150101 25.7874098732
7639 1 24.008967445 13.3383150101 29.3442925954
7640 1 24.008967445 13.3383150101 32.9011774517
7641 1 24.008967445 16.8951987994 0.8892210007
7642 1 24.008967445 16.8951987994 4.4461050034
7643 1 24.008967445 16.8951987994 8.0029887926
7644 1 24.008967445 16.8951987994 11.5598725819
7645 1 24.008967445 16.8951987994 15.1167574383
7646 1 24.008967445 16.8951987994 18.6736401605
7647 1 24.008967445 16.8951987994 22.2305250168
7648 1 24.008967445 16.8951987994 25.7874098732
7649 1 24.008967445 16.8951987994 29.3442925954
7650 1 24.008967445 16.8951987994 32.9011774517
7651 1 24.008967445 20.4520825886 0.8892210007
7652 1 24.008967445 20.4520825886 4.4461050034
7653 1 24.008967445 20.4520825886 8.0029887926
7654 1 24.008967445 20.4520825886 11.5598725819
7655 1 24.008967445 20.4520825886 15.1167574383
7656 1 24.008967445 20.4520825886 18.6736401605
7657 1 24.008967445 20.4520825886 22.2305250168
7658 1 24.008967445 20.4520825886 25.7874098732
7659 1 24.008967445 20.4520825886 29.3442925954
7660 1 24.008967445 20.4520825886 32.9011774517
7661 1 24.008967445 24.008967445 0.8892210007
7662 1 24.008967445 24.008967445 4.4461050034
7663 1 24.008967445 24.008967445 8.0029887926
7664 1 24.008967445 24.008967445 11.5598725819
7665 1 24.008967445 24.008967445 15.1167574383
7666 1 24.008967445 24.008967445 18.6736401605
7667 1 24.008967445 24.008967445 22.2305250168
7668 1 24.008967445 24.008967445 25.7874098732
7669 1 24.008967445 24.008967445 29.3442925954
7670 1 24.008967445 24.008967445 32.9011774517
7671 1 24.008967445 27.5658501672 0.8892210007
7672 1 24.008967445 27.5658501672 4.4461050034
7673 1 24.008967445 27.5658501672 8.0029887926
7674 1 24.008967445 27.5658501672 11.5598725819
7675 1 24.008967445 27.5658501672 15.1167574383
7676 1 24.008967445 27.5658501672 18.6736401605
7677 1 24.008967445 27.5658501672 22.2305250168
7678 1 24.008967445 27.5658501672 25.7874098732
7679 1 24.008967445 27.5658501672 29.3442925954
7680 1 24.008967445 27.5658501672 32.9011774517
7681 1 24.008967445 31.1227350235 0.8892210007
7682 1 24.008967445 31.1227350235 4.4461050034
7683 1 24.008967445 31.1227350235 8.0029887926
7684 1 24.008967445 31.1227350235 11.5598725819
7685 1 24.008967445 31.1227350235 15.1167574383
7686 1 24.008967445 31.1227350235 18.6736401605
7687 1 24.008967445 31.1227350235 22.2305250168
7688 1 24.008967445 31.1227350235 25.7874098732
7689 1 24.008967445 31.1227350235 29.3442925954
7690 1 24.008967445 31.1227350235 32.9011774517
7691 1 24.008967445 34.6796198799 0.8892210007
7692 1 24.008967445 34.6796198799 4.4461050034
7693 1 24.008967445 34.6796198799 8.0029887926
7694 1 24.008967445 34.6796198799 11.5598725819
7695 1 24.008967445 34.6796198799 15.1167574383
7696 1 24.008967445 34.6796198799 18.6736401605
7697 1 24.008967445 34.6796198799 22.2305250168
7698 1 24.008967445 34.6796198799 25.7874098732
7699 1 24.008967445 34.6796198799 29.3442925954
7700 1 24.008967445 34.6796198799 32.9011774517
7701 1 27.5658501672 2.6676631087 0.8892210007
7702 1 27.5658501672 2.6676631087 4.4461050034
7703 1 27.5658501672 2.6676631087 8.0029887926
7704 1 27.5658501672 2.6676631087 11.5598725819
7705 1 27.5658501672 2.6676631087 15.1167574383
7706 1 27.5658501672 2.6676631087 18.6736401605
7707 1 27.5658501672 2.6676631087 22.2305250168
7708 1 27.5658501672 2.6676631087 25.7874098732
7709 1 27.5658501672 2.6676631087 29.3442925954
7710 1 27.5658501672 2.6676631087 32.9011774517
7711 1 27.5658501672 6.224546898 0.8892210007
7712 1 27.5658501672 6.224546898 4.4461050034
7713 1 27.5658501672 6.224546898 8.0029887926
7714 1 27.5658501672 6.224546898 11.5598725819
7715 1 27.5658501672 6.224546898 15.1167574383
7716 1 27.5658501672 6.224546898 18.6736401605
7717 1 27.5658501672 6.224546898 22.2305250168
7718 1 27.5658501672 6.224546898 25.7874098732
7719 1 27.5658501672 6.224546898 29.3442925954
7720 1 27.5658501672 6.224546898 32.9011774517
7721 1 27.5658501672 9.7814312208 0.8892210007
7722 1 27.5658501672 9.7814312208 4.4461050034
7723 1 27.5658501672 9.7814312208 8.0029887926
7724 1 27.5658501672 9.7814312208 11.5598725819
7725 1 27.5658501672 9.7814312208 15.1167574383
7726 1 27.5658501672 9.7814312208 18.6736401605
7727 1 27.5658501672 9.7814312208 22.2305250168
7728 1 27.5658501672 9.7814312208 25.7874098732
7729 1 27.5658501672 9.7814312208 29.3442925954
7730 1 27.5658501672 9.7814312208 32.9011774517
7731 1 27.5658501672 13.3383150101 0.8892210007
7732 1 27.5658501672 13.3383150101 4.4461050034
7733 1 27.5658501672 13.3383150101 8.0029887926
7734 1 27.5658501672 13.3383150101 11.5598725819
7735 1 27.5658501672 13.3383150101 15.1167574383
7736 1 27.5658501672 13.3383150101 18.6736401605
7737 1 27.5658501672 13.3383150101 22.2305250168
7738 1 27.5658501672 13.3383150101 25.7874098732
7739 1 27.5658501672 13.3383150101 29.3442925954
7740 1 27.5658501672 13.3383150101 32.9011774517
7741 1 27.5658501672 16.8951987994 0.8892210007
7742 1 27.5658501672 16.8951987994 4.4461050034
7743 1 27.5658501672 16.8951987994 8.0029887926
7744 1 27.5658501672 16.8951987994 11.5598725819
7745 1 27.5658501672 16.8951987994 15.1167574383
7746 1 27.5658501672 16.8951987994 18.6736401605
7747 1 27.5658501672 16.8951987994 22.2305250168
7748 1 27.5658501672 16.8951987994 25.7874098732
7749 1 27.5658501672 16.8951987994 29.3442925954
7750 1 27.5658501672 16.8951987994 32.9011774517
7751 1 27.5658501672 20.4520825886 0.8892210007
7752 1 27.5658501672 20.4520825886 4.4461050034
7753 1 27.5658501672 20.4520825886 8.0029887926
7754 1 27.5658501672 20.4520825886 11.5598725819
7755 1 27.5658501672 20.4520825886 15.1167574383
7756 1 27.5658501672 20.4520825886 18.6736401605
7757 1 27.5658501672 20.4520825886 22.2305250168
7758 1 27.5658501672 20.4520825886 25.7874098732
7759 1 27.5658501672 20.4520825886 29.3442925954
7760 1 27.5658501672 20.4520825886 32.9011774517
7761 1 27.5658501672 24.008967445 0.8892210007
7762 1 27.5658501672 24.008967445 4.4461050034
7763 1 27.5658501672 24.008967445 8.0029887926
7764 1 27.5658501672 24.008967445 11.5598725819
7765 1 27.5658501672 24.008967445 15.1167574383
7766 1 27.5658501672 24.008967445 18.6736401605
7767 1 27.5658501672 24.008967445 22.2305250168
7768 1 27.5658501672 24.008967445 25.7874098732
7769 1 27.5658501672 24.008967445 29.3442925954
7770 1 27.5658501672 24.008967445 32.9011774517
7771 1 27.5658501672 27.5658501672 0.8892210007
7772 1 27.5658501672 27.5658501672 4.4461050034
7773 1 27.5658501672 27.5658501672 8.0029887926
7774 1 27.5658501672 27.5658501672 11.5598725819
7775 1 27.5658501672 27.5658501672 15.1167574383
7776 1 27.5658501672 27.5658501672 18.6736401605
7777 1 27.5658501672 27.5658501672 22.2305250168
7778 1 27.5658501672 27.5658501672 25.7874098732
7779 1 27.5658501672 27.5658501672 29.3442925954
7780 1 27.5658501672 27.5658501672 32.9011774517
7781 1 27.5658501672 31.1227350235 0.8892210007
7782 1 27.5658501672 31.1227350235 4.4461050034
7783 1 27.5658501672 31.1227350235 8.0029887926
7784 1 27.5658501672 31.1227350235 11.5598725819
7785 1 27.5658501672 31.1227350235 15.1167574383
7786 1 27.5658501672 31.1227350235 18.6736401605
7787 1 27.5658501672 31.1227350235 22.2305250168
7788 1 27.5658501672 31.1227350235 25.7874098732
7789 1 27.5658501672 31.1227350235 29.3442925954
7790 1 27.5658501672 31.1227350235 32.9011774517
7791 1 27.5658501672 34.6796198799 0.8892210007
7792 1 27.5658501672 34.6796198799 4.4461050034
7793 1 27.5658501672 34.6796198799 8.0029887926
7794 1 27.5658501672 34.6796198799 11.5598725819
7795 1 27.5658501672 34.6796198799 15.1167574383
7796 1 27.5658501672 34.6796198799 18.6736401605
7797 1 27.5658501672 34.6796198799 22.2305250168
7798 1 27.5658501672 34.6796198799 25.7874098732
7799 1 27.5658501672 34.6796198799 29.3442925954
7800 1 27.5658501672 34.6796198799 32.9011774517
7801 1 31.1227350235 2.6676631087 0.8892210007
7802 1 31.1227350235 2.6676631087 4.4461050034
7803 1 31.1227350235 2.6676631087 8.0029887926
7804 1 31.1227350235 2.6676631087 11.5598725819
7805 1 31.1227350235 2.6676631087 15.1167574383
7806 1 31.1227350235 2.6676631087 18.6736401605
7807 1 31.1227350235 2.6676631087 22.2305250168
7808 1 31.1227350235 2.6676631087 25.7874098732
7809 1 31.1227350235 2.6676631087 29.3442925954
7810 1 31.1227350235 2.6676631087 32.9011774517
7811 1 31.1227350235 6.224546898 0.8892210007
7812 1 31.1227350235 6.224546898 4.4461050034
7813 1 31.1227350235 6.224546898 8.0029887926
7814 1 31.1227350235 6.224546898 11.5598725819
7815 1 31.1227350235 6.224546898 15.1167574383
7816 1 31.1227350235 6.224546898 18.6736401605
7817 1 31.1227350235 6.224546898 22.2305250168
7818 1 31.1227350235 6.224546898 25.7874098732
7819 1 31.1227350235 6.224546898 29.3442925954
7820 1 31.1227350235 6.224546898 32.9011774517
7821 1 31.1227350235 9.7814312208 0.8892210007
7822 1 31.1227350235 9.7814312208 4.4461050034
7823 1 31.1227350235 9.7814312208 8.0029887926
7824 1 31.1227350235 9.7814312208 11.5598725819
7825 1 31.1227350235 9.7814312208 15.1167574383
7826 1 31.1227350235 9.7814312208 18.6736401605
7827 1 31.1227350235 9.7814312208 22.2305250168
7828 1 31.1227350235 9.7814312208 25.7874098732
7829 1 31.1227350235 9.7814312208 29.3442925954
7830 1 31.1227350235 9.7814312208 32.9011774517
7831 1 31.1227350235 13.3383150101 0.8892210007
7832 1 31.1227350235 13.3383150101 4.4461050034
7833 1 31.1227350235 13.3383150101 8.0029887926
7834 1 31.1227350235 13.3383150101 11.5598725819
7835 1 31.1227350235 13.3383150101 15.1167574383
7836 1 31.1227350235 13.3383150101 18.6736401605
7837 1 31.1227350235 13.3383150101 22.2305250168
7838 1 31.1227350235 13.3383150101 25.7874098732
7839 1 31.1227350235 13.3383150101 29.3442925954
7840 1 31.1227350235 13.3383150101 32.9011774517
7841 1 31.1227350235 16.8951987994 0.8892210007
7842 1 31.1227350235 16.8951987994 4.4461050034
7843 1 31.1227350235 16.8951987994 8.0029887926
7844 1 31.1227350235 16.8951987994 11.5598725819
7845 1 31.1227350235 16.8951987994 15.1167574383
7846 1 31.1227350235 16.8951987994 18.6736401605
7847 1 31.1227350235 16.8951987994 22.2305250168
7848 1 31.1227350235 16.8951987994 25.7874098732
7849 1 31.1227350235 16.8951987994 29.3442925954
7850 1 31.1227350235 16.8951987994 32.9011774517
7851 1 31.1227350235 20.4520825886 0.8892210007
7852 1 31.1227350235 20.4520825886 4.4461050034
7853 1 31.1227350235 20.4520825886 8.0029887926
7854 1 31.1227350235 20.4520825886 11.5598725819
7855 1 31.1227350235 20.4520825886 15.1167574383
7856 1 31.1227350235 20.4520825886 18.6736401605
7857 1 31.1227350235 20.4520825886 22.2305250168
7858 1 31.1227350235 20.4520825886 25.7874098732
7859 1 31.1227350235 20.4520825886 29.3442925954
7860 1 31.1227350235 20.4520825886 32.9011774517
7861 1 31.1227350235 24.008967445 0.8892210007
7862 1 31.1227350235 24.008967445 4.4461050034
7863 1 31.1227350235 24.008967445 8.0029887926
7864 1 31.1227350235 24.008967445 11.5598725819
7865 1 31.1227350235 24.008967445 15.1167574383
7866 1 31.1227350235 24.008967445 18.6736401605
7867 1 31.1227350235 24.008967445 22.2305250168
7868 1 31.1227350235 24.008967445 25.7874098732
7869 1 31.1227350235 24.008967445 29.3442925954
7870 1 31.1227350235 24.008967445 32.9011774517
7871 1 31.1227350235 27.5658501672 0.8892210007
7872 1 31.1227350235 27.5658501672 4.4461050034
7873 1 31.1227350235 27.5658501672 8.0029887926
7874 1 31.1227350235 27.5658501672 11.5598725819
7875 1 31.1227350235 27.5658501672 15.1167574383
7876 1 31.1227350235 27.5658501672 18.6736401605
7877 1 31.1227350235 27.5658501672 22.2305250168
7878 1 31.1227350235 27.5658501672 25.7874098732
7879 1 31.1227350235 27.5658501672 29.3442925954
7880 1 31.1227350235 27.5658501672 32.9011774517
7881 1 31.1227350235 31.1227350235 0.8892210007
7882 1 31.1227350235 31.1227350235 4.4461050034
7883 1 31.1227350235 31.1227350235 8.0029887926
7884 1 31.1227350235 31.1227350235 11.5598725819
7885 1 31.1227350235 31.1227350235 15.1167574383
7886 1 31.1227350235 31.1227350235 18.6736401605
7887 1 31.1227350235 31.1227350235 22.2305250168
7888 1 31.1227350235 31.1227350235 25.7874098732
7889 1 31.1227350235 31.1227350235 29.3442925954
7890 1 31.1227350235 31.1227350235 32.9011774517
7891 1 31.1227350235 34.6796198799 0.8892210007
7892 1 31.1227350235 34.6796198799 4.4461050034
7893 1 31.1227350235 34.6796198799 8.0029887926
7894 1 31.1227350235 34.6796198799 11.5598725819
7895 1 31.1227350235 34.6796198799 15.1167574383
7896 1 31.1227350235 34.6796198799 18.6736401605
7897 1 31.1227350235 34.6796198799 22.2305250168
7898 1 31.1227350235 34.6796198799 25.7874098732
7899 1 31.1227350235 34.6796198799 29.3442925954
7900 1 31.1227350235 34.6796198799 32.9011774517
7901 1 34.6796198799 2.6676631087 0.8892210007
7902 1 34.6796198799 2.6676631087 4.4461050034
7903 1 34.6796198799 2.6676631087 8.0029887926
7904 1 34.6796198799 2.6676631087 11.5598725819
7905 1 34.6796198799 2.6676631087 15.1167574383
7906 1 34.6796198799 2.6676631087 18.6736401605
7907 1 34.6796198799 2.6676631087 22.2305250168
7908 1 34.6796198799 2.6676631087 25.7874098732
7909 1 34.6796198799 2.6676631087 29.3442925954
7910 1 34.6796198799 2.6676631087 32.9011774517
7911 1 34.6796198799 6.224546898 0.8892210007
7912 1 34.6796198799 6.224546898 4.4461050034
7913 1 34.6796198799 6.224546898 8.0029887926
7914 1 34.6796198799 6.224546898 11.5598725819
7915 1 34.6796198799 6.224546898 15.1167574383
7916 1 34.6796198799 6.224546898 18.6736401605
7917 1 34.6796198799 6.224546898 22.2305250168
7918 1 34.6796198799 6.224546898 25.7874098732
7919 1 34.6796198799 6.224546898 29.3442925954
7920 1 34.6796198799 6.224546898 32.9011774517
7921 1 34.6796198799 9.7814312208 0.8892210007
7922 1 34.6796198799 9.7814312208 4.4461050034
7923 1 34.6796198799 9.7814312208 8.0029887926
7924 1 34.6796198799 9.7814312208 11.5598725819
7925 1 34.6796198799 9.7814312208 15.1167574383
7926 1 34.6796198799 9.7814312208 18.6736401605
7927 1 34.6796198799 9.7814312208 22.2305250168
7928 1 34.6796198799 9.7814312208 25.7874098732
7929 1 34.6796198799 9.7814312208 29.3442925954
7930 1 34.6796198799 9.7814312208 32.9011774517
7931 1 34.6796198799 13.3383150101 0.8892210007
7932 1 34.6796198799 13.3383150101 4.4461050034
7933 1 34.6796198799 13.3383150101 8.0029887926
7934 1 34.6796198799 13.3383150101 11.5598725819
7935 1 34.6796198799 13.3383150101 15.1167574383
7936 1 34.6796198799 13.3383150101 18.6736401605
7937 1 34.6796198799 13.3383150101 22.2305250168
7938 1 34.6796198799 13.3383150101 25.7874098732
7939 1 34.6796198799 13.3383150101 29.3442925954
7940 1 34.6796198799 13.3383150101 32.9011774517
7941 1 34.6796198799 16.8951987994 0.8892210007
7942 1 34.6796198799 16.8951987994 4.4461050034
7943 1 34.6796198799 16.8951987994 8.0029887926
7944 1 34.6796198799 16.8951987994 11.5598725819
7945 1 34.6796198799 16.8951987994 15.1167574383
7946 1 34.6796198799 16.8951987994 18.6736401605
7947 1 34.6796198799 16.8951987994 22.2305250168
7948 1 34.6796198799 16.8951987994 25.7874098732
7949 1 34.6796198799 16.8951987994 29.3442925954
7950 1 34.6796198799 16.8951987994 32.9011774517
7951 1 34.6796198799 20.4520825886 0.8892210007
7952 1 34.6796198799 20.4520825886 4.4461050034
7953 1 34.6796198799 20.4520825886 8.0029887926
7954 1 34.6796198799 20.4520825886 11.5598725819
7955 1 34.6796198799 20.4520825886 15.1167574383
7956 1 34.6796198799 20.4520825886 18.6736401605
7957 1 34.6796198799 20.4520825886 22.2305250168
7958 1 34.6796198799 20.4520825886 25.7874098732
7959 1 34.6796198799 20.4520825886 29.3442925954
7960 1 34.6796198799 20.4520825886 32.9011774517
7961 1 34.6796198799 24.008967445 0.8892210007
7962 1 34.6796198799 24.008967445 4.4461050034
7963 1 34.6796198799 24.008967445 8.0029887926
7964 1 34.6796198799 24.008967445 11.5598725819
7965 1 34.6796198799 24.008967445 15.1167574383
7966 1 34.6796198799 24.008967445 18.6736401605
7967 1 34.6796198799 24.008967445 22.2305250168
7968 1 34.6796198799 24.008967445 25.7874098732
7969 1 34.6796198799 24.008967445 29.3442925954
7970 1 34.6796198799 24.008967445 32.9011774517
7971 1 34.6796198799 27.5658501672 0.8892210007
7972 1 34.6796198799 27.5658501672 4.4461050034
7973 1 34.6796198799 27.5658501672 8.0029887926
7974 1 34.6796198799 27.5658501672 11.5598725819
7975 1 34.6796198799 27.5658501672 15.1167574383
7976 1 34.6796198799 27.5658501672 18.6736401605
7977 1 34.6796198799 27.5658501672 22.2305250168
7978 1 34.6796198799 27.5658501672 25.7874098732
7979 1 34.6796198799 27.5658501672 29.3442925954
7980 1 34.6796198799 27.5658501672 32.9011774517
7981 1 34.6796198799 31.1227350235 0.8892210007
7982 1 34.6796198799 31.1227350235 4.4461050034
7983 1 34.6796198799 31.1227350235 8.0029887926
7984 1 34.6796198799 31.1227350235 11.5598725819
7985 1 34.6796198799 31.1227350235 15.1167574383
7986 1 34.6796198799 31.1227350235 18.6736401605
7987 1 34.6796198799 31.1227350235 22.2305250168
7988 1 34.6796198799 31.1227350235 25.7874098732
7989 1 34.6796198799 31.1227350235 29.3442925954
7990 1 34.6796198799 31.1227350235 32.9011774517
7991 1 34.6796198799 34.6796198799 0.8892210007
7992 1 34.6796198799 34.6796198799 4.4461050034
7993 1 34.6796198799 34.6796198799 8.0029887926
7994 1 34.6796198799 34.6796198799 11.5598725819
7995 1 34.6796198799 34.6796198799 15.1167574383
7996 1 34.6796198799 34.6796198799 18.6736401605
7997 1 34.6796198799 34.6796198799 22.2305250168
7998 1 34.6796198799 34.6796198799 25.7874098732
7999 1 34.6796198799 34.6796198799 29.3442925954
8000 1 34.6796198799 34.6796198799 32.9011774517
