# LAMMPS data file written by OVITO Basic 3.7.7
8000 atoms
1 atom types
-3.1451086533 38.7139486802 xlo xhi
-3.1728183584 38.7416583853 ylo yhi
-3.1547670914 38.7236071183 zlo zhi

Atoms  # atomic

1 1 25.5337 37.3075 12.5674
2 1 28.7125 28.1847 30.7792
3 1 27.2789 31.3189 12.2693
4 1 32.9887 28.8652 12.9902
5 1 7.12774 19.4849 37.9955
6 1 30.1836 -1.70675 38.5403
7 1 0.830243 16.3855 18.506
8 1 19.0989 -0.379175 21.0774
9 1 8.46239 35.7481 35.5683
10 1 14.9356 38.191 37.3144
11 1 34.0413 16.99 14.1441
12 1 30.9488 38.2906 11.7952
13 1 8.46789 8.81145 4.22342
14 1 27.2482 0.200785 4.343
15 1 28.4003 15.2141 17.5178
16 1 26.2978 5.89903 32.7511
17 1 15.5222 36.0587 33.1547
18 1 31.9985 20.3054 19.3265
19 1 21.8814 7.65358 36.4959
20 1 33.7058 26.6865 21.7392
21 1 -0.202239 32.2109 25.536
22 1 16.5 37.9258 2.89058
23 1 6.06635 28.2618 0.606212
24 1 36.706 35.1268 36.0222
25 1 19.9562 8.9861 28.6616
26 1 36.3538 -3.13021 10.8306
27 1 27.9809 24.8225 15.667
28 1 19.785 14.3791 7.36344
29 1 -0.765217 15.4056 37.2054
30 1 19.0755 27.0385 23.8822
31 1 13.5917 17.7003 16.582
32 1 -1.81102 36.4957 1.93419
33 1 32.5932 11.2052 36.7406
34 1 17.1655 21.0617 13.5339
35 1 7.04174 23.3397 32.2949
36 1 20.1985 23.7839 14.1371
37 1 3.92064 32.8237 2.52342
38 1 31.5921 23.4158 16.1135
39 1 25.4845 25.9957 -2.86914
40 1 -1.66064 26.6729 33.2489
41 1 -1.02539 7.83028 37.5615
42 1 15.3006 11.8736 12.9162
43 1 33.151 21.6389 27.455
44 1 27.9891 16.1232 38.4186
45 1 14.4569 28.6376 13.0329
46 1 13.3372 31.5148 28.8672
47 1 24.1587 5.99371 21.5065
48 1 9.07417 24.5587 21.759
49 1 20.9113 8.48722 21.8979
50 1 18.6212 16.0131 7.26914
51 1 34.7065 -2.67132 9.7821
52 1 18.9614 16.8079 20.7223
53 1 1.89391 -2.23808 30.1846
54 1 36.9653 10.7985 9.59972
55 1 24.1573 9.27879 27.1393
56 1 14.8635 21.5289 12.812
57 1 5.71194 4.75291 31.4729
58 1 13.5068 34.1327 14.9575
59 1 14.3082 27.6318 10.2678
60 1 12.5163 21.4308 25.542
61 1 24.8355 34.706 13.0798
62 1 -0.323708 27.9912 21.1092
63 1 29.4523 10.7441 32.2878
64 1 10.5141 9.04402 11.8877
65 1 17.8231 7.18908 32.2741
66 1 -1.36233 17.9848 1.89177
67 1 10.834 4.7292 19.0356
68 1 4.14052 4.75869 17.5953
69 1 20.9191 11.6439 0.200875
70 1 12.9555 1.36075 11.0266
71 1 4.76568 30.7555 16.5538
72 1 19.6734 8.68079 15.0618
73 1 21.6309 23.0386 11.0169
74 1 4.63852 23.8062 15.3262
75 1 20.982 36.4704 5.9216
76 1 -3.08005 16.1239 2.43426
77 1 32.8974 25.0579 38.6211
78 1 22.2909 12.3742 -2.40494
79 1 20.4469 1.62677 27.0933
80 1 15.3252 16.9447 15.8929
81 1 17.2582 35.5936 18.0641
82 1 -1.18355 15.257 27.4853
83 1 6.36964 32.5422 -2.00233
84 1 0.140784 18.2438 10.4843
85 1 33.9973 3.40184 30.9805
86 1 37.0582 -0.597028 2.39276
87 1 -2.76163 -2.66612 9.73033
88 1 34.4556 6.31367 13.482
89 1 29.0209 -0.762752 14.7628
90 1 5.37858 3.48372 13.5329
91 1 5.00231 26.4553 -2.29279
92 1 27.4865 1.78126 5.56786
93 1 -0.902601 13.1223 33.8448
94 1 24.7597 -0.0574381 28.8105
95 1 25.3299 14.8525 38.4813
96 1 26.0107 -2.25283 17.1167
97 1 13.2472 15.8918 37.9263
98 1 12.0572 35.7415 7.21122
99 1 21.765 4.02645 34.6525
100 1 28.2282 37.911 10.5277
101 1 32.5187 4.19363 19.427
102 1 22.0027 19.9258 17.3919
103 1 10.3616 26.9954 20.9652
104 1 7.28924 2.94399 8.89986
105 1 2.3582 18.1471 26.233
106 1 7.23808 35.8064 5.80719
107 1 9.0642 30.029 6.03244
108 1 32.0058 21.5906 19.3825
109 1 20.5984 28.0593 30.437
110 1 26.3023 1.19187 37.0774
111 1 30.1029 23.199 7.26973
112 1 10.2584 30.8225 29.6187
113 1 1.98477 14.5781 31.8157
114 1 17.6505 10.2783 26.1155
115 1 28.445 10.631 6.37041
116 1 16.0603 25.1423 17.3174
117 1 4.95643 20.5294 -2.32271
118 1 25.2417 38.3065 6.16406
119 1 13.8798 37.6018 4.33141
120 1 12.2235 8.88374 6.11248
121 1 17.7777 32.8949 18.4786
122 1 -0.52428 22.3081 16.4627
123 1 16.9457 -0.521854 15.8712
124 1 3.63597 34.9058 0.0242464
125 1 21.5705 32.4832 15.5409
126 1 15.0886 -1.24703 30.7434
127 1 6.68705 34.5253 32.9099
128 1 31.2026 15.5312 18.3259
129 1 28.4034 16.3379 2.04593
130 1 7.19479 8.40535 36.9881
131 1 9.7122 -1.73297 24.6575
132 1 35.1147 26.0487 35.3112
133 1 7.61023 12.3793 38.3664
134 1 -1.52177 20.2052 34.5668
135 1 -1.3161 4.11154 28.8803
136 1 34.5378 4.215 2.18745
137 1 30.455 13.9087 24.2126
138 1 2.56548 1.48379 13.4111
139 1 28.729 12.7624 19.2961
140 1 25.8924 16.102 21.2897
141 1 20.2214 17.3283 33.4923
142 1 25.3081 2.2682 34.6139
143 1 13.1498 38.451 20.774
144 1 16.5242 24.6018 11.8042
145 1 35.861 3.13088 3.18583
146 1 32.35 5.61917 32.5625
147 1 23.3181 1.694 26.4121
148 1 0.0682057 3.51254 14.7277
149 1 16.5417 33.5064 -2.48037
150 1 15.9589 11.1421 37.2005
151 1 34.2437 19.4861 28.2204
152 1 15.1461 19.76 10.2727
153 1 23.1645 31.1555 30.1633
154 1 38.1657 6.07348 11.2168
155 1 -0.431618 6.95612 17.2169
156 1 33.2598 6.21987 0.0294238
157 1 25.4407 -2.8468 2.03126
158 1 31.5254 23.4898 24.4932
159 1 29.3563 8.56536 13.6088
160 1 17.6675 10.0578 30.3744
161 1 35.7926 14.9265 32.0061
162 1 38.1896 28.1835 34.8038
163 1 34.9789 5.26935 18.8047
164 1 -0.602129 1.79464 5.13922
165 1 29.0386 19.9801 1.59348
166 1 28.4001 -0.417942 4.07871
167 1 6.38026 6.47595 26.3856
168 1 6.39009 -0.775503 28.8326
169 1 15.4868 27.5836 22.5923
170 1 18.8264 27.1983 30.8557
171 1 2.14102 20.8728 15.1135
172 1 12.7669 16.0714 15.6849
173 1 35.3742 3.24467 34.1577
174 1 28.0236 29.9241 17.0061
175 1 20.4987 35.8637 22.4175
176 1 3.88929 5.74522 4.29122
177 1 23.6566 18.5412 22.5335
178 1 38.5921 34.5132 3.46104
179 1 29.608 6.21999 19.6075
180 1 3.56705 12.5004 18.9562
181 1 34.1125 16.5336 7.85023
182 1 27.0915 21.2276 32.9912
183 1 2.33519 -0.83481 1.86457
184 1 7.21019 11.3528 37.5291
185 1 -1.7518 18.5726 31.4448
186 1 27.0089 35.5305 34.4536
187 1 37.7285 5.27661 27.9814
188 1 -0.179102 32.9037 -1.97751
189 1 6.99753 14.9698 21.0366
190 1 31.5024 6.44571 22.156
191 1 9.27511 36.459 26.1133
192 1 32.601 5.20278 35.489
193 1 8.07383 15.3614 37.806
194 1 20.5403 37.0204 2.6954
195 1 22.009 21.7274 15.6667
196 1 11.5641 2.79177 14.0972
197 1 36.4663 -1.0691 19.8846
198 1 12.1917 30.0179 12.1725
199 1 9.90573 31.0956 5.93067
200 1 9.62369 21.1552 15.3165
201 1 2.22819 -0.257417 23.4397
202 1 2.63892 24.4833 2.0845
203 1 28.2721 35.0018 37.8103
204 1 37.9515 20.7818 19.3542
205 1 32.3924 30.8012 11.3539
206 1 13.8001 12.2515 9.94703
207 1 3.71665 27.0026 16.1704
208 1 20.3437 20.6207 24.0954
209 1 37.524 -2.47321 1.93914
210 1 13.9416 29.3836 7.11679
211 1 20.9208 0.937758 15.4342
212 1 28.286 12.1016 9.31116
213 1 15.2496 32.3107 24.0119
214 1 18.8464 28.9504 34.5472
215 1 33.9703 17.0743 26.4446
216 1 37.685 9.70853 -0.64078
217 1 38.0797 12.2699 31.0223
218 1 33.4838 0.70147 30.6736
219 1 33.7981 24.2767 -2.62254
220 1 35.3101 31.5343 1.48401
221 1 23.2371 8.99889 32.0849
222 1 3.68315 4.72966 -2.36829
223 1 7.84071 8.75481 27.5832
224 1 27.351 16.6128 4.71534
225 1 17.9642 19.6896 25.9526
226 1 21.6174 17.1295 6.96342
227 1 19.5733 22.2618 36.4384
228 1 20.4108 19.9189 2.54122
229 1 0.32188 31.7 32.2218
230 1 0.093426 11.5566 -2.76276
231 1 1.77025 16.0106 9.22082
232 1 29.7371 34.184 23.2192
233 1 24.1113 7.47222 0.823199
234 1 24.0019 37.9257 2.82744
235 1 14.375 34.5368 8.45359
236 1 25.4078 15.0498 9.11192
237 1 21.0984 18.4376 34.9026
238 1 33.2968 -2.02579 4.42718
239 1 23.3758 23.6637 32.9013
240 1 9.4954 17.7863 24.3674
241 1 28.6957 13.146 14.2416
242 1 8.85192 32.3725 21.8723
243 1 36.8638 12.3127 17.36
244 1 35.0521 18.2437 9.46917
245 1 0.78611 35.2523 28.0821
246 1 17.6641 34.7003 31.9445
247 1 3.58393 32.6286 31.3642
248 1 0.677806 35.8089 11.4071
249 1 31.3348 5.05508 38.4479
250 1 31.9055 7.98385 16.461
251 1 2.46403 5.78714 24.4984
252 1 16.7109 -2.78503 37.2055
253 1 6.98886 -1.11037 25.8422
254 1 11.469 31.5074 28.1638
255 1 10.5942 5.52405 30.423
256 1 30.8351 6.98643 -0.263393
257 1 -0.284954 -1.54595 10.0826
258 1 -1.82921 38.6916 22.9605
259 1 20.2988 2.62891 18.9573
260 1 23.2166 14.3454 6.90238
261 1 33.694 0.628242 1.42874
262 1 34.2973 31.8122 -1.50302
263 1 23.5047 11.4541 20.1194
264 1 25.0623 0.655881 12.1919
265 1 30.6237 25.0448 9.34934
266 1 11.3977 25.0223 18.9429
267 1 32.4742 7.29588 27.5133
268 1 25.0026 35.6566 18.8239
269 1 36.2175 30.9706 11.1145
270 1 33.5984 35.0935 30.9656
271 1 16.934 1.84559 7.23382
272 1 30.1288 34.8756 6.70154
273 1 14.9786 35.5105 -1.07927
274 1 35.5962 17.953 20.5113
275 1 10.3723 23.4299 26.4109
276 1 36.8296 23.2296 17.6601
277 1 28.7212 17.1713 35.7339
278 1 24.528 28.8586 35.8489
279 1 1.28431 10.7155 34.573
280 1 17.9235 12.9667 24.3145
281 1 18.3652 28.341 21.4739
282 1 9.20815 31.5836 16.5316
283 1 14.5253 14.8298 10.7304
284 1 23.0678 24.3934 14.1404
285 1 1.93883 17.9915 32.8043
286 1 27.7083 0.634036 -1.58411
287 1 5.39854 5.10667 22.1466
288 1 3.67601 17.3007 14.5067
289 1 1.50081 35.3953 26.8424
290 1 -0.495077 10.4715 14.8906
291 1 22.5061 11.5887 37.6489
292 1 7.5288 -0.931884 3.91967
293 1 1.35234 9.13398 36.9059
294 1 23.1895 9.47158 24.5094
295 1 12.1547 9.42286 20.3428
296 1 4.88627 21.7157 38.5505
297 1 24.1989 26.3473 19.6314
298 1 18.2064 9.08448 -1.71487
299 1 6.6505 35.3222 0.8897
300 1 26.5183 22.7957 21.0769
301 1 26.8659 29.9503 8.47516
302 1 8.64045 33.11 23.735
303 1 28.3136 33.6278 -0.234374
304 1 26.6555 16.1748 15.6649
305 1 -1.78479 10.8126 -0.966957
306 1 36.7291 22.6203 32.9417
307 1 24.7093 35.2448 21.8884
308 1 -2.71609 34.7514 36.7244
309 1 27.6975 34.7557 25.6827
310 1 3.17502 38.6827 6.5687
311 1 20.8751 13.152 -1.12702
312 1 30.4035 9.94007 17.7678
313 1 13.8808 7.11385 12.8234
314 1 21.8568 18.3128 38.3355
315 1 17.4642 7.38853 35.3734
316 1 28.7537 7.39798 37.5097
317 1 4.24778 33.5992 1.4595
318 1 37.9084 27.1874 20.6428
319 1 36.4297 11.4813 30.1843
320 1 24.1938 10.0414 10.2839
321 1 4.44156 9.33461 24.1997
322 1 5.71647 11.8294 11.7142
323 1 15.5408 21.4117 14.7172
324 1 35.0912 9.55491 23.3564
325 1 37.9331 21.1577 9.98497
326 1 1.74582 19.8083 12.3947
327 1 31.0744 10.0442 -0.07452
328 1 9.5495 9.63449 13.5652
329 1 19.1926 33.67 6.5255
330 1 27.406 36.2904 31.6821
331 1 27.7516 15.4466 20.9076
332 1 -0.0352122 24.8837 24.6148
333 1 5.44998 31.2449 0.561685
334 1 2.63208 -1.35853 9.54843
335 1 30.66 18.2681 13.9448
336 1 17.589 30.5573 29.734
337 1 1.9232 24.6283 28.5507
338 1 37.6638 13.6928 24.1945
339 1 -0.212698 0.195691 20.0871
340 1 0.495479 15.3038 32.9614
341 1 -1.78058 2.15084 15.454
342 1 3.87742 35.6549 18.0913
343 1 17.67 0.671465 28.414
344 1 12.2362 9.36147 25.0571
345 1 -0.479755 28.6754 22.3379
346 1 1.15843 37.0119 18.1833
347 1 5.06393 31.1543 28.7151
348 1 32.3732 27.3248 20.397
349 1 12.3041 10.1612 38.3686
350 1 1.44857 7.69436 32.3507
351 1 31.4247 5.76969 18.8149
352 1 26.6512 6.5233 13.8016
353 1 11.5852 30.3427 8.27289
354 1 6.29288 36.5874 31.0685
355 1 35.0527 23.986 -0.264134
356 1 20.9955 5.47517 -2.0882
357 1 11.1161 37.0186 19.8143
358 1 35.5643 27.5062 32.358
359 1 33.6986 8.21189 22.7903
360 1 22.3401 36.7661 -1.34223
361 1 38.2807 20.3605 17.3902
362 1 30.3024 33.5178 31.1268
363 1 22.2587 20.3567 26.8475
364 1 18.6906 1.60505 20.874
365 1 -0.392769 9.67929 -0.057139
366 1 13.184 7.26563 7.90446
367 1 6.18533 12.7439 20.009
368 1 2.0695 14.1687 3.14883
369 1 18.5875 18.4691 14.4882
370 1 11.5999 -0.947534 27.2129
371 1 12.2971 14.9507 23.7627
372 1 16.6145 16.1093 28.6181
373 1 14.8596 28.4951 2.1219
374 1 33.8936 34.1034 36.0282
375 1 27.3355 33.4701 2.54239
376 1 14.711 4.54056 29.7128
377 1 13.3218 19.1401 7.91988
378 1 17.1653 -0.224375 32.6081
379 1 36.0808 32.184 36.2451
380 1 3.8502 7.8016 35.9591
381 1 4.14129 11.2126 28.9422
382 1 8.34163 13.6667 11.5225
383 1 2.46887 12.8045 24.4488
384 1 24.2583 37.7495 30.4487
385 1 21.537 35.5474 8.63404
386 1 7.02076 16.3379 23.7404
387 1 31.1662 38.1259 13.2045
388 1 5.48625 27.7352 9.45184
389 1 15.066 19.8748 -0.691724
390 1 9.49469 18.9988 35.7745
391 1 3.09829 16.4887 27.0586
392 1 6.06776 36.624 16.0522
393 1 13.2207 9.81302 23.342
394 1 31.0309 3.8229 -3.06302
395 1 35.0826 29.8538 13.9118
396 1 -1.24315 21.794 29.8815
397 1 25.6441 31.7973 36.3613
398 1 4.0599 25.1623 25.3936
399 1 11.8905 31.3825 -2.4469
400 1 6.66618 32.9155 16.6656
401 1 24.7889 9.85972 13.6531
402 1 14.1462 17.3656 19.5524
403 1 21.0537 20.3955 21.264
404 1 29.8846 4.11424 27.804
405 1 18.8373 30.9812 29.2582
406 1 -0.153805 8.83343 3.14073
407 1 11.6015 20.0483 19.0275
408 1 3.36192 38.3934 32.3777
409 1 17.4808 15.7243 25.9485
410 1 13.993 18.0216 13.6538
411 1 21.7066 4.08409 25.6291
412 1 29.0021 21.9925 19.661
413 1 23.0801 0.0189481 36.3759
414 1 -0.994157 -0.526271 11.6898
415 1 6.56764 29.9767 31.2096
416 1 32.98 29.2465 5.13012
417 1 8.80186 9.48465 34.0267
418 1 22.7909 35.421 38.5801
419 1 8.12507 26.2587 15.718
420 1 15.2792 16.4828 9.81155
421 1 7.32251 31.27 11.4855
422 1 27.1889 12.9564 38.471
423 1 2.88346 30.1159 16.8451
424 1 -0.681397 13.3596 12.7081
425 1 -2.62225 -0.991373 17.232
426 1 20.3999 0.209591 25.6873
427 1 38.5175 37.4581 30.1671
428 1 8.57481 37.2366 33.1513
429 1 24.5402 33.5835 3.06389
430 1 3.83371 2.02564 31.8533
431 1 26.4459 14.8717 12.7981
432 1 30.3617 21.6114 -2.52264
433 1 1.91333 10.2236 25.5103
434 1 28.1485 10.7606 25.4972
435 1 4.49573 27.2955 6.17717
436 1 1.35764 26.7592 13.2329
437 1 21.787 36.9321 37.7881
438 1 15.9478 1.62687 28.8868
439 1 21.5747 14.1203 29.8937
440 1 33.2143 2.42281 4.20117
441 1 16.5382 16.6813 20.0033
442 1 30.3311 7.89892 11.2553
443 1 2.85262 8.73689 3.18893
444 1 37.0499 31.0893 30.4201
445 1 10.3041 6.10206 21.519
446 1 19.9919 29.567 36.0936
447 1 37.1313 25.9446 4.50508
448 1 12.3511 38.1206 14.2926
449 1 10.9475 33.4739 2.2136
450 1 3.44466 -2.41369 23.309
451 1 25.2667 19.0171 28.1697
452 1 19.6483 32.0916 35.6357
453 1 18.3208 5.56455 31.1618
454 1 19.3385 4.48536 0.972454
455 1 27.5268 20.405 15.2777
456 1 19.0464 0.0240014 10.1003
457 1 4.50904 29.3006 14.0951
458 1 31.6963 31.0624 27.1979
459 1 3.99082 8.09296 21.7483
460 1 34.8873 0.679776 11.6169
461 1 7.88836 17.1417 -3.1149
462 1 5.75277 15.6649 1.33831
463 1 24.7693 21.0777 1.68775
464 1 28.6986 29.0973 29.5381
465 1 33.9931 22.9459 36.908
466 1 7.85161 22.2502 22.0093
467 1 31.0207 4.73279 4.7819
468 1 30.568 9.60257 35.3392
469 1 10.4827 6.93836 33.3603
470 1 4.81485 37.5177 6.29724
471 1 6.26565 34.6103 9.5851
472 1 15.7121 -0.460027 19.557
473 1 34.4704 -1.34021 32.0642
474 1 35.2026 4.94228 33.0671
475 1 25.81 6.95215 20.8405
476 1 19.2005 22.3857 10.2662
477 1 32.0467 29.1162 38.1728
478 1 10.8374 23.8425 31.1258
479 1 21.712 -1.9192 15.6341
480 1 20.689 32.7088 12.6983
481 1 11.3063 14.7245 16.0103
482 1 31.7463 6.7777 37.4805
483 1 37.3232 4.38854 -0.915938
484 1 12.2715 16.7769 32.6831
485 1 22.4412 25.9129 38.6606
486 1 17.6196 38.1022 28.9196
487 1 33.1819 34.4891 16.7746
488 1 28.6975 20.5934 6.19161
489 1 32.6593 5.34284 5.76017
490 1 31.3083 -2.2913 26.1945
491 1 28.7787 19.4546 31.1816
492 1 -2.99868 24.479 2.5054
493 1 22.7688 29.8093 23.7247
494 1 21.3797 13.0008 11.2558
495 1 0.73703 22.7674 17.9812
496 1 6.55083 29.5691 21.1311
497 1 8.05861 6.49936 31.6845
498 1 24.4976 21.0801 15.6095
499 1 6.24558 32.0622 38.5095
500 1 35.0513 25.7565 1.87215
501 1 -0.714598 27.7659 28.4587
502 1 9.25703 11.3963 22.1331
503 1 -2.29573 29.853 30.5751
504 1 37.7545 26.6206 2.12547
505 1 37.2223 11.8531 1.65689
506 1 4.11413 26.4365 12.2398
507 1 4.32611 37.0137 31.2481
508 1 23.1693 19.0088 25.6786
509 1 36.515 10.9307 25.7612
510 1 10.5531 32.7737 20.9619
511 1 23.4976 3.90538 13.3848
512 1 32.5222 7.23242 21.5033
513 1 15.0434 -3.09648 25.1047
514 1 -0.569855 -1.87202 23.7563
515 1 27.6123 36.4685 4.99097
516 1 -1.3592 3.58613 22.4655
517 1 10.064 13.7297 27.4076
518 1 27.552 30.9306 26.4737
519 1 13.2836 29.2524 32.5499
520 1 12.1674 4.75855 12.4792
521 1 26.6678 -0.342963 25.4417
522 1 28.3299 8.28144 15.341
523 1 1.38255 -0.0727811 13.9601
524 1 21.6014 33.4315 19.2462
525 1 8.09127 13.0368 5.17662
526 1 18.4376 7.8534 -0.146312
527 1 36.5668 3.03059 23.923
528 1 10.2482 35.0235 31.4195
529 1 22.9023 9.03278 17.1358
530 1 3.12894 9.17225 26.7434
531 1 6.14565 18.6458 22.5675
532 1 30.2452 24.3259 32.8573
533 1 10.7296 20.469 -1.20855
534 1 4.16272 11.7947 35.646
535 1 23.6572 16.0567 33.2648
536 1 -1.2584 1.60531 17.2998
537 1 7.10302 22.3922 15.9909
538 1 10.4393 18.6721 27.4439
539 1 38.3545 4.08187 16.8335
540 1 34.4286 0.708996 24.8303
541 1 38.3562 12.3299 19.7653
542 1 11.7497 29.5672 34.8014
543 1 16.3605 37.3019 16.4647
544 1 -1.40906 23.6889 36.7619
545 1 36.4903 37.826 32.3876
546 1 26.4122 16.6567 7.39176
547 1 28.5749 21.3781 16.7136
548 1 14.5088 -0.214574 14.8357
549 1 35.0817 24.4362 -3.03856
550 1 9.27212 27.6252 30.8643
551 1 8.01873 31.239 34.6768
552 1 18.4601 21.4271 26.8242
553 1 22.0697 25.1987 22.6112
554 1 14.1327 36.9153 18.3567
555 1 35.113 38.6257 21.2695
556 1 10.7403 17.4789 35.3131
557 1 24.2643 23.2823 17.2514
558 1 18.6217 4.984 5.0332
559 1 13.2984 10.8274 14.8958
560 1 18.8355 16.1917 -1.33855
561 1 22.4692 3.08719 24.0642
562 1 8.58508 18.0681 0.362827
563 1 0.0526652 -1.78661 3.11229
564 1 25.3806 7.76803 19.8139
565 1 15.7715 20.9037 35.9175
566 1 33.7653 1.85411 22.3035
567 1 10.6004 13.0291 37.7841
568 1 10.1374 33.1215 34.9922
569 1 17.5906 11.2534 20.907
570 1 36.9393 22.0008 36.7096
571 1 32.6425 20.3334 34.0447
572 1 1.41806 4.04862 13.3356
573 1 7.78481 26.9085 23.8208
574 1 32.9194 38.1689 6.94241
575 1 5.21179 0.228886 2.78114
576 1 -1.65856 28.0125 -2.34659
577 1 4.69303 32.6306 4.37368
578 1 27.4846 19.0011 5.89438
579 1 2.48523 29.5997 21.7766
580 1 19.7198 -1.85666 15.5776
581 1 9.64702 9.21791 16.6994
582 1 9.54287 37.4248 26.9631
583 1 20.2838 34.8334 17.2694
584 1 7.72082 -1.44588 11.5988
585 1 19.3263 38.4492 35.754
586 1 20.5565 37.3214 15.6875
587 1 3.24798 30.8347 13.9432
588 1 27.2654 10.708 21.044
589 1 31.1843 12.5493 6.64515
590 1 18.8037 -1.80982 1.52717
591 1 -0.587064 -2.33196 4.95389
592 1 24.2629 -1.35068 3.9694
593 1 22.9812 2.87935 7.28619
594 1 21.4356 30.0002 12.6336
595 1 31.4707 26.6379 23.5039
596 1 38.0407 36.0031 21.7019
597 1 23.3144 25.2339 25.9775
598 1 23.2455 35.1929 31.6364
599 1 23.6207 29.1048 26.3465
600 1 22.7294 38.4769 2.87398
601 1 35.8139 32.542 31.2111
602 1 -0.775863 23.3377 0.96015
603 1 37.1632 22.8324 22.8591
604 1 33.359 26.857 18.698
605 1 32.6759 -1.73275 29.416
606 1 13.4667 2.98909 30.1522
607 1 37.8945 11.0724 19.8898
608 1 36.0712 14.694 35.2099
609 1 27.9836 -2.7288 24.1519
610 1 4.03442 36.2216 10.837
611 1 9.41221 32.8476 19.3213
612 1 34.3304 35.8466 38.0806
613 1 19.4996 5.68578 14.7384
614 1 12.7343 -0.595968 38.5296
615 1 33.3441 35.782 37.0246
616 1 33.0578 21.8335 6.85339
617 1 8.63647 22.3984 1.39004
618 1 25.0948 14.6438 33.2678
619 1 15.5297 27.4186 31.2241
620 1 -1.99706 31.2656 1.71134
621 1 37.3622 7.22696 11.0947
622 1 25.4481 5.02327 20.2942
623 1 14.768 10.6924 24.2439
624 1 -2.17196 14.1565 5.05356
625 1 -0.158799 36.6074 17.8422
626 1 -2.91166 34.4013 23.359
627 1 15.6054 9.76253 23.8181
628 1 12.0869 7.08542 37.6061
629 1 23.2187 11.0159 17.5252
630 1 18.1628 -1.30717 30.7143
631 1 28.173 8.99026 27.7349
632 1 19.3148 29.5577 20.1997
633 1 34.759 32.0956 17.1145
634 1 17.9831 37.7524 7.81405
635 1 20.6312 3.7052 16.6535
636 1 16.651 18.0757 12.3499
637 1 21.3134 -3.04261 0.433426
638 1 -2.38404 10.3596 7.80302
639 1 3.43346 18.3395 15.4367
640 1 13.9896 38.3437 34.675
641 1 5.11747 8.70253 -2.8163
642 1 6.41882 33.3256 20.2287
643 1 2.48921 -0.104793 33.3958
644 1 7.3424 -2.76781 2.03511
645 1 5.50935 12.4989 10.5558
646 1 29.9418 32.7112 32.1661
647 1 15.8824 6.61275 10.7248
648 1 30.396 5.15656 21.107
649 1 27.7128 4.30193 0.114423
650 1 28.8331 37.3601 7.09226
651 1 22.5839 36.3089 0.592347
652 1 -1.58323 23.8488 -3.12412
653 1 36.5235 -2.12402 14.5606
654 1 22.6141 16.5426 4.32853
655 1 19.5543 22.6619 -1.40974
656 1 8.56581 37.7564 2.85278
657 1 34.5751 14.6431 31.3421
658 1 5.22369 6.29987 34.0541
659 1 35.3733 33.2663 6.8819
660 1 7.95685 19.9545 19.0922
661 1 25.7137 33.2253 37.7972
662 1 24.4867 28.6576 17.8334
663 1 21.1518 31.415 11.2214
664 1 17.2112 38.4605 14.1813
665 1 34.7179 12.9805 37.1453
666 1 25.0137 21.484 11.7678
667 1 27.0804 22.4526 5.0602
668 1 17.9164 29.9054 4.27196
669 1 1.57562 25.0693 38.5259
670 1 18.6935 31.2768 21.1287
671 1 1.10297 34.3365 35.5184
672 1 17.6636 3.82145 23.1041
673 1 2.11003 29.0239 9.61624
674 1 8.73957 29.8554 33.3795
675 1 10.9757 4.41111 33.1649
676 1 22.3963 8.08161 14.319
677 1 6.06394 -2.73933 26.5407
678 1 36.7454 28.0312 14.0309
679 1 30.5857 29.1209 34.1664
680 1 19.7167 12.9634 27.7794
681 1 11.7973 24.5724 21.8417
682 1 19.9728 -2.6126 4.65392
683 1 -2.952 29.4951 33.477
684 1 4.18308 8.26572 3.06732
685 1 7.17062 27.924 20.1721
686 1 26.9482 33.7857 24.9364
687 1 9.80021 24.9608 7.99391
688 1 29.5865 17.7241 -1.61087
689 1 -1.65306 5.78962 7.45311
690 1 6.76709 29.5629 10.5902
691 1 35.5591 28.8643 25.9023
692 1 -0.773789 15.8874 26.3467
693 1 25.5595 23.7798 28.9235
694 1 29.1597 2.20395 22.7543
695 1 12.8608 14.0682 -0.238658
696 1 9.01309 10.5807 37.9166
697 1 13.5787 21.2661 5.59512
698 1 13.3414 22.6821 19.7113
699 1 -2.6249 17.4572 11.1023
700 1 25.1585 7.00745 35.5905
701 1 -1.13991 22.9595 11.8071
702 1 -0.28204 15.8237 35.9685
703 1 38.1247 29.9979 24.8295
704 1 24.9102 15.8513 34.873
705 1 19.5668 23.8688 25.5387
706 1 20.0807 0.264257 33.8289
707 1 22.4415 35.839 27.4467
708 1 34.7616 36.8621 17.0745
709 1 24.5003 14.1329 7.5495
710 1 21.6673 10.0878 -0.780674
711 1 15.6605 31.1008 27.1554
712 1 7.72832 31.8976 35.8464
713 1 34.086 10.6144 35.522
714 1 30.658 19.8976 37.6034
715 1 15.1526 10.183 15.3815
716 1 17.3179 13.2115 26.2326
717 1 -1.1296 11.8011 25.0789
718 1 4.14212 11.0009 38.3841
719 1 21.988 12.7372 14.9681
720 1 20.215 3.45009 28.8861
721 1 29.0825 30.3016 14.2908
722 1 33.3501 9.21419 2.49172
723 1 25.2972 25.8215 33.4233
724 1 20.8841 8.99315 7.11023
725 1 36.6682 -0.278227 11.8668
726 1 24.4963 19.3809 8.77519
727 1 28.1864 9.00204 9.6033
728 1 9.78618 15.4642 4.70821
729 1 27.4366 11.1521 2.49257
730 1 27.6584 7.69709 34.8244
731 1 -0.985793 28.1979 1.0844
732 1 31.3968 6.66264 33.1994
733 1 2.37283 15.8083 -1.05863
734 1 33.2074 25.3688 31.4812
735 1 1.52472 24.8985 11.1045
736 1 24.981 26.1259 27.6176
737 1 20.6425 34.1923 31.5145
738 1 2.57555 3.58132 10.1713
739 1 27.6436 35.9385 10.3978
740 1 5.545 10.5562 38.3978
741 1 28.4269 24.8645 24.6979
742 1 19.3246 23.6577 4.78395
743 1 6.16297 23.21 35.1754
744 1 31.4095 19.99 5.05385
745 1 10.0148 36.8664 30.6833
746 1 10.4295 17.557 5.9531
747 1 27.8387 9.39019 24.0102
748 1 23.3038 32.0104 3.22707
749 1 -1.03841 34.7424 7.92962
750 1 15.1422 26.8684 4.68572
751 1 25.4789 30.1398 18.7358
752 1 38.4329 8.3922 9.87823
753 1 13.9845 18.368 5.02652
754 1 19.4303 33.0435 -2.56808
755 1 32.6444 32.7522 32.8709
756 1 37.7567 28.298 -2.39493
757 1 23.4355 20.1554 7.25249
758 1 30.5602 36.4218 3.68801
759 1 36.7507 2.90977 26.7518
760 1 -3.02673 31.8654 25.1139
761 1 22.8061 13.9374 16.8225
762 1 18.0777 38.0136 24.4155
763 1 24.5136 15.0989 12.2939
764 1 25.5968 17.0236 5.60885
765 1 17.8625 20.2356 -3.06973
766 1 7.84851 11.0259 12.2348
767 1 37.8158 3.50116 33.3781
768 1 31.7879 0.440905 37.7195
769 1 8.49562 26.6291 5.90729
770 1 16.0912 33.9991 2.49332
771 1 30.2204 -2.12741 5.60648
772 1 11.8629 34.3823 7.00997
773 1 2.34022 14.8314 35.2062
774 1 8.03972 1.94358 35.9044
775 1 27.8055 37.5021 23.0305
776 1 16.2264 15.6391 1.95726
777 1 4.7436 25.7029 26.5609
778 1 27.4614 27.8873 3.47382
779 1 5.59584 18.5596 34.1627
780 1 3.37623 35.6317 12.6696
781 1 16.7931 8.3461 30.9753
782 1 11.7998 3.74291 22.6042
783 1 30.1633 32.8322 36.5015
784 1 3.05547 18.6897 24.3861
785 1 23.8136 2.27455 19.887
786 1 -0.750843 38.1848 1.63624
787 1 6.69435 16.4993 0.811099
788 1 4.43858 12.7768 30.178
789 1 18.7812 7.46223 7.12099
790 1 35.2209 1.13787 15.1244
791 1 36.7221 32.7142 -0.51121
792 1 8.40609 27.8661 37.4574
793 1 -1.93651 15.8847 34.7916
794 1 3.55893 0.657249 6.35491
795 1 37.6286 35.6315 37.7262
796 1 12.0118 2.00196 17.3434
797 1 20.3562 31.6165 3.42074
798 1 31.9441 23.8962 23.2377
799 1 21.1368 0.455174 2.31815
800 1 16.3964 14.2405 3.37386
801 1 8.18813 10.8157 34.0829
802 1 30.9702 23.4368 31.1999
803 1 33.3456 21.6375 17.8828
804 1 25.3879 3.08257 17.0613
805 1 37.2558 17.5555 15.1539
806 1 9.174 1.48061 18.1696
807 1 32.2255 -2.82544 17.6517
808 1 14.5374 12.1089 15.7797
809 1 34.4389 15.6874 38.6882
810 1 25.5594 32.7451 30.9645
811 1 20.9637 -2.47353 32.1883
812 1 5.37912 36.0665 28.26
813 1 33.1119 5.75156 -2.77278
814 1 2.80817 7.36363 0.488749
815 1 20.6883 0.298973 28.576
816 1 12.632 37.4893 -1.32603
817 1 34.5144 26.0179 15.5146
818 1 10.4806 30.5049 -0.146635
819 1 -1.97392 10.6042 35.3173
820 1 19.7421 36.8875 5.47627
821 1 20.1384 22.2377 1.92386
822 1 9.59454 27.366 -1.01206
823 1 6.24737 3.68549 8.38324
824 1 32.7656 26.7736 30.1139
825 1 11.8347 36.3204 3.28732
826 1 31.2257 21.4402 16.3155
827 1 30.884 10.9979 14.253
828 1 20.5628 15.3329 26.4681
829 1 0.839754 14.0814 22.1955
830 1 33.0365 12.2954 11.2752
831 1 31.3349 -1.52172 1.64807
832 1 -2.54491 2.07991 5.57293
833 1 38.0453 -0.458538 -0.42327
834 1 -2.01195 21.4643 7.7483
835 1 32.5686 34.238 -0.0904792
836 1 5.79725 2.07664 2.25442
837 1 10.131 34.1468 14.7941
838 1 33.0088 34.3479 27.7945
839 1 -1.49349 29.4005 20.3292
840 1 35.5199 -1.91076 29.3562
841 1 -1.75354 9.16099 15.7579
842 1 -2.88938 27.0285 36.63
843 1 11.6115 28.9492 13.7797
844 1 23.9296 -0.451483 1.22135
845 1 31.1507 35.8743 30.6181
846 1 26.2855 25.4273 5.64537
847 1 1.36885 34.602 24.9868
848 1 20.3616 22.0127 29.2781
849 1 6.55292 -3.04318 21.5462
850 1 35.1272 25.9862 28.8487
851 1 32.1124 33.6167 38.5558
852 1 27.9953 9.7095 34.8055
853 1 28.3596 2.94915 16.479
854 1 30.1436 16.3856 20.951
855 1 -2.4187 9.05755 30.767
856 1 35.4021 15.0779 29.1019
857 1 24.1204 5.08583 18.7926
858 1 6.95661 -2.36778 19.6799
859 1 25.3278 9.38321 37.4795
860 1 8.15196 25.8771 12.7864
861 1 24.1513 9.13781 3.93448
862 1 28.5161 0.396786 -2.74474
863 1 8.4909 11.7512 25.9801
864 1 31.8954 7.5742 7.59056
865 1 35.8743 33.9081 12.877
866 1 31.7604 23.9418 0.861293
867 1 29.9606 17.5993 32.3762
868 1 12.7854 37.1801 8.41749
869 1 6.62039 32.7571 29.817
870 1 9.70368 30.7802 13.7116
871 1 1.52392 19.0366 20.0744
872 1 28.7045 10.9066 27.4065
873 1 23.0721 24.6149 -1.83206
874 1 31.603 3.93672 28.8544
875 1 19.7575 12.1184 2.87767
876 1 35.5332 16.8665 36.4126
877 1 32.014 26.7503 12.1771
878 1 5.41975 1.01636 37.1644
879 1 10.2294 -1.89558 12.1677
880 1 37.8361 19.2409 37.4647
881 1 11.348 10.6849 8.42879
882 1 12.6183 7.58183 26.7303
883 1 11.1685 7.68695 22.3942
884 1 18.1209 10.6744 0.332066
885 1 9.66361 12.6416 -1.35641
886 1 30.8468 35.1665 27.7641
887 1 19.5262 8.88101 37.8911
888 1 38.1642 12.7912 8.85414
889 1 24.9966 22.3411 8.29583
890 1 34.171 24.3049 13.2437
891 1 -2.85585 34.8057 8.79169
892 1 1.69002 -1.15508 6.94955
893 1 8.19204 34.2174 14.315
894 1 33.2544 30.1772 32.4137
895 1 35.7654 13.358 14.1157
896 1 11.6822 31.3111 35.7736
897 1 38.717 2.01112 8.22287
898 1 16.3766 17.0011 1.82348
899 1 25.9712 38.3089 34.3471
900 1 11.2725 28.6352 17.9343
901 1 25.5767 0.305605 22.7259
902 1 33.6333 18.2533 5.41235
903 1 18.4452 13.1419 30.7222
904 1 7.54978 4.27399 15.7649
905 1 11.3137 -1.05342 5.08443
906 1 18.5746 34.5115 8.26757
907 1 30.2824 3.09036 22.7816
908 1 2.9139 35.6054 4.82834
909 1 28.6158 -0.568556 2.06615
910 1 29.7475 0.218618 -0.0484673
911 1 26.9429 0.53445 2.37412
912 1 27.6164 23.0402 30.4567
913 1 11.7824 25.2252 8.31658
914 1 14.7139 1.05737 25.2352
915 1 0.210619 31.5463 5.19114
916 1 27.3073 23.2217 32.9947
917 1 24.2342 4.57063 27.5701
918 1 33.9258 -2.44013 24.9429
919 1 29.1471 26.3227 31.4056
920 1 34.7559 22.0584 23.7195
921 1 29.0193 29.275 8.34679
922 1 28.1627 30.5756 -0.569881
923 1 1.65042 7.63019 24.74
924 1 19.947 29.2994 2.26262
925 1 11.6402 35.4944 17.42
926 1 5.33354 21.2785 5.48663
927 1 5.75692 30.8023 13.5882
928 1 15.7493 9.88408 19.1626
929 1 33.2393 31.6489 21.5065
930 1 27.2375 28.4043 15.9621
931 1 28.3743 28.4309 14.2985
932 1 3.52464 24.8328 21.8157
933 1 33.0901 16.8708 -1.16515
934 1 2.36502 22.4173 35.0167
935 1 6.87657 2.30218 36.6354
936 1 12.8125 37.2176 31.4354
937 1 32.1319 15.5636 10.1677
938 1 10.2061 30.7361 37.0249
939 1 11.6822 26.1467 32.7978
940 1 14.4445 30.1402 29.8461
941 1 2.25543 32.284 28.5451
942 1 38.2173 6.83462 33.2286
943 1 19.2512 29.0688 15.3784
944 1 -0.992844 23.6718 18.561
945 1 -2.76631 22.1091 26.0316
946 1 -1.45563 36.2305 31.9014
947 1 -1.21472 5.47963 28.5243
948 1 25.1387 11.4087 7.04064
949 1 0.210201 10.1873 18.6313
950 1 16.1507 -0.368319 25.3967
951 1 26.3394 37.9594 4.50197
952 1 38.4909 -0.153837 35.5351
953 1 -1.59292 27.7592 26.6708
954 1 0.85388 15.7971 3.07776
955 1 32.6248 0.00370431 25.3082
956 1 1.36699 23.2305 35.6611
957 1 12.363 10.7667 11.7273
958 1 16.3385 21.1167 29.3448
959 1 32.6228 -1.00455 0.869864
960 1 29.0369 -1.3306 32.8843
961 1 7.72885 4.38694 28.0695
962 1 27.8891 7.9877 23.8345
963 1 30.4788 5.08212 7.89972
964 1 16.0348 35.9411 24.0117
965 1 13.4075 17.9018 27.2469
966 1 9.83322 14.854 2.79084
967 1 32.7194 23.5459 5.75947
968 1 15.4868 22.0405 36.6536
969 1 28.0826 32.2321 35.0739
970 1 15.9613 10.3626 2.91672
971 1 30.8809 23.1394 8.67971
972 1 16.4342 38.6824 11.3408
973 1 28.9968 35.7427 2.60831
974 1 33.9057 28.8186 10.1167
975 1 36.6465 18.0248 33.6197
976 1 38.6343 34.5645 20.4222
977 1 23.6646 36.7295 10.2304
978 1 19.8898 31.1512 19.0857
979 1 11.4879 20.2593 26.8407
980 1 0.0515066 27.1406 37.28
981 1 13.3306 21.5115 29.0451
982 1 0.244334 1.63994 9.96019
983 1 2.81091 38.5791 16.5248
984 1 -1.43908 -2.80435 2.19761
985 1 12.5102 31.3032 23.4573
986 1 13.0827 4.80498 16.8579
987 1 5.54634 34.3901 -2.03553
988 1 26.7604 36.932 16.8807
989 1 29.4374 5.48172 31.7522
990 1 0.793822 37.7358 34.756
991 1 17.2829 37.3078 13.4104
992 1 16.9728 23.1108 4.17182
993 1 28.9253 23.3617 16.7512
994 1 31.2536 10.1211 7.65461
995 1 20.1307 6.54727 -1.64352
996 1 10.2968 31.4331 18.1982
997 1 38.6544 11.4962 16.9243
998 1 24.711 29.5198 3.467
999 1 38.1197 32.0159 19.1168
1000 1 23.5534 11.4118 5.76335
1001 1 9.423 -0.510392 36.1786
1002 1 33.9537 -1.63352 9.15876
1003 1 -1.16257 28.7802 34.0739
1004 1 26.6066 20.5501 18.5146
1005 1 37.1015 14.6914 0.706671
1006 1 -1.04424 4.51312 31.3721
1007 1 16.9259 -2.5863 26.8327
1008 1 -2.04647 18.0531 18.7642
1009 1 37.1598 11.1411 37.6621
1010 1 14.3866 32.0517 10.303
1011 1 32.3884 37.814 -1.12257
1012 1 19.1337 31.5933 13.3306
1013 1 10.4598 15.0147 8.44644
1014 1 27.674 -2.74632 9.89811
1015 1 6.50796 11.6904 26.222
1016 1 36.0099 16.7043 16.5591
1017 1 12.4567 11.7188 30.6588
1018 1 0.218862 23.3391 -1.43821
1019 1 13.5171 3.01194 6.09046
1020 1 25.6463 22.6442 30.5969
1021 1 22.5972 28.9165 37.4304
1022 1 30.9948 12.8104 4.07876
1023 1 20.0304 18.1016 12.1735
1024 1 3.48311 34.7074 15.7739
1025 1 8.33953 29.3476 17.8954
1026 1 -2.33711 31.6623 3.64939
1027 1 33.2988 15.8192 20.5092
1028 1 32.3694 29.4765 11.1863
1029 1 19.9621 14.0853 19.4592
1030 1 29.6153 27.0335 6.70132
1031 1 16.2241 30.9276 8.85475
1032 1 15.0328 18.3336 -1.98475
1033 1 15.0673 -2.05486 35.1836
1034 1 1.41393 11.2016 23.7994
1035 1 18.4943 17.1431 22.6494
1036 1 11.3489 0.696754 7.41907
1037 1 30.7348 28.2455 24.4522
1038 1 33.1675 27.0171 36.7034
1039 1 12.6897 6.15985 25.2793
1040 1 37.4063 10.2626 14.7606
1041 1 0.657032 26.5975 16.7016
1042 1 5.91209 10.2483 21.1593
1043 1 37.7478 20.063 29.764
1044 1 20.4534 11.5091 28.9967
1045 1 11.4028 29.8327 32.0244
1046 1 13.66 -0.631435 25.5708
1047 1 32.4995 1.20916 33.4061
1048 1 6.73401 28.3051 4.53762
1049 1 4.72443 2.33499 34.6196
1050 1 22.0728 10.5889 34.3877
1051 1 -1.782 -1.34698 12.6391
1052 1 23.6231 21.7595 20.6345
1053 1 24.7845 3.81702 26.1917
1054 1 18.2727 6.09885 21.6979
1055 1 29.6578 20.574 17.2332
1056 1 7.3158 26.882 11.2839
1057 1 1.22141 10.7851 29.9576
1058 1 26.4582 4.85757 14.9245
1059 1 25.4212 13.1776 30.1409
1060 1 18.5301 35.4251 16.5315
1061 1 36.3527 -3.07264 1.51276
1062 1 7.78866 12.9384 17.478
1063 1 29.5793 32.0135 6.81327
1064 1 5.00783 22.9783 21.0995
1065 1 27.6466 4.22307 35.0164
1066 1 13.5738 7.44574 30.4747
1067 1 2.85846 13.6778 34.5291
1068 1 34.7113 -2.48024 2.50149
1069 1 36.3251 28.3261 -0.994415
1070 1 20.2156 36.8627 12.5099
1071 1 11.1021 3.44162 -2.76581
1072 1 13.7715 13.348 31.8873
1073 1 6.76432 30.2368 27.095
1074 1 19.6339 36.2501 -2.84114
1075 1 36.0617 16.334 7.41187
1076 1 27.5837 3.92837 -2.82374
1077 1 7.2831 -2.1682 10.4242
1078 1 24.9942 26.794 37.8608
1079 1 7.78013 4.5864 33.7422
1080 1 5.06899 19.9516 4.04874
1081 1 23.8699 19.3602 31.2321
1082 1 24.8261 25.0736 36.8253
1083 1 20.0243 4.72092 24.7161
1084 1 1.74507 4.13206 -2.47487
1085 1 16.039 16.6952 23.602
1086 1 1.89488 1.82829 6.29858
1087 1 33.5119 1.59792 31.7142
1088 1 32.908 19.5948 14.2498
1089 1 2.55074 0.572559 10.0489
1090 1 6.9172 26.6728 32.0797
1091 1 9.87531 22.4661 28.1047
1092 1 35.4747 -0.0606406 15.704
1093 1 19.479 -0.403399 15.9072
1094 1 -2.33332 13.6586 -1.98488
1095 1 34.9253 28.7487 20.3789
1096 1 18.597 21.7872 20.7802
1097 1 -2.1315 1.49952 37.7294
1098 1 32.8148 3.19122 2.37045
1099 1 22.1652 9.35378 4.20165
1100 1 29.891 -2.44144 31.0394
1101 1 0.811822 22.3653 14.9597
1102 1 9.8986 6.50984 15.6864
1103 1 20.3751 2.57306 6.06975
1104 1 27.21 19.5306 -0.616429
1105 1 24.9447 33.7673 30.3825
1106 1 10.4889 12.3457 14.5689
1107 1 19.2948 23.3737 32.9028
1108 1 16.9471 10.4495 34.7756
1109 1 23.2594 24.8561 38.0532
1110 1 9.51809 24.5721 26.2594
1111 1 8.61837 19.8006 23.2307
1112 1 3.83719 11.8341 32.8822
1113 1 16.2972 7.31905 37.6627
1114 1 16.1571 33.7047 15.9351
1115 1 7.05631 20.4314 7.77994
1116 1 17.3522 33.0289 22.9083
1117 1 6.39212 18.8169 28.2889
1118 1 22.8569 29.6684 2.66977
1119 1 37.2984 8.50948 35.6986
1120 1 30.0188 9.96252 4.14545
1121 1 4.92967 13.1685 4.012
1122 1 37.4791 12.9465 33.309
1123 1 12.7545 34.6093 9.66255
1124 1 27.4026 26.7123 35.2408
1125 1 -2.23946 30.7529 17.1622
1126 1 -0.264105 3.58166 7.31863
1127 1 5.06202 -2.95547 19.2914
1128 1 14.0277 14.8537 16.687
1129 1 6.36682 36.6527 18.0191
1130 1 9.27725 30.292 23.864
1131 1 12.6634 12.2118 8.30193
1132 1 -0.615116 25.722 33.5677
1133 1 11.7132 37.2411 34.266
1134 1 6.89847 32.8869 22.1181
1135 1 7.81363 23.4514 15.3459
1136 1 5.37035 5.71827 36.7358
1137 1 4.13175 0.330359 23.7535
1138 1 3.14641 26.0698 5.28212
1139 1 29.648 12.0286 22.0352
1140 1 38.2745 0.47161 38.7168
1141 1 37.4479 20.0423 15.6045
1142 1 31.7415 1.86638 22.1273
1143 1 1.32137 7.63077 2.53734
1144 1 11.6139 35.6913 11.5889
1145 1 0.0218088 30.8736 29.2397
1146 1 1.93396 13.2755 6.43249
1147 1 11.5451 15.3935 31.4191
1148 1 21.2396 18.8196 18.874
1149 1 9.8493 1.16351 25.2966
1150 1 6.83299 27.2565 34.8922
1151 1 23.4819 38.6648 21.9372
1152 1 9.45614 12.1312 -2.71181
1153 1 29.4346 7.21807 35.6128
1154 1 18.8777 26.6973 3.10156
1155 1 10.3436 24.4486 30.1526
1156 1 37.3605 29.8728 2.64045
1157 1 33.2629 13.5606 25.3232
1158 1 11.8119 17.2468 3.31138
1159 1 2.21262 13.0661 37.6411
1160 1 10.147 19.7027 33.1932
1161 1 4.40171 22.8234 6.41733
1162 1 3.43589 4.59449 32.3314
1163 1 23.7306 0.213421 13.6352
1164 1 20.0964 36.2216 25.7835
1165 1 26.9261 2.12549 31.4585
1166 1 31.5244 21.02 36.2084
1167 1 26.5369 17.4753 33.6708
1168 1 6.83188 18.0189 -2.56526
1169 1 21.5732 4.35789 13.6716
1170 1 11.3626 24.9619 28.504
1171 1 16.259 24.0525 29.9054
1172 1 19.8064 24.9552 27.2618
1173 1 23.3397 6.96739 22.3622
1174 1 12.5863 17.3325 8.43334
1175 1 5.08357 24.1932 9.06621
1176 1 36.6664 17.3884 23.9633
1177 1 29.711 -2.56844 34.9987
1178 1 -1.18619 0.231245 9.76206
1179 1 6.61439 15.5509 12.6519
1180 1 26.2815 23.7716 19.3124
1181 1 37.2394 7.61335 32.6194
1182 1 9.39269 15.9112 9.91069
1183 1 37.3126 30.4823 15.0933
1184 1 -1.86499 29.7082 35.6866
1185 1 10.9867 6.69056 3.57792
1186 1 8.24854 34.2242 12.3194
1187 1 5.04854 35.2468 31.9856
1188 1 29.2584 20.4313 8.12919
1189 1 35.5834 38.2195 8.26339
1190 1 17.6441 30.3127 -1.2744
1191 1 1.53815 11.7586 1.83405
1192 1 8.57695 25.993 36.7133
1193 1 37.1106 13.8556 36.7131
1194 1 33.7341 22.4838 24.4552
1195 1 8.03751 13.3148 35.5751
1196 1 3.79716 33.7329 -2.77263
1197 1 12.6749 9.97835 7.07774
1198 1 23.6754 8.36757 18.8884
1199 1 2.19973 8.87611 22.1956
1200 1 -0.549409 -2.15454 13.9985
1201 1 10.4304 14.0494 30.4271
1202 1 17.9261 9.24792 14.2934
1203 1 29.3233 30.9189 28.8838
1204 1 12.1903 24.5894 7.09898
1205 1 37.989 29.6517 21.5157
1206 1 25.8948 34.5871 23.4183
1207 1 35.6174 6.44177 32.8378
1208 1 27.4827 31.6374 9.39627
1209 1 15.3269 5.77085 28.2195
1210 1 24.4084 6.5046 18.5639
1211 1 10.4428 29.0715 15.4137
1212 1 24.0096 38.4584 19.0656
1213 1 15.7111 12.7423 35.1065
1214 1 34.891 33.9258 13.7778
1215 1 11.5025 -1.71238 31.178
1216 1 0.853909 38.4679 37.5163
1217 1 27.2134 -2.34067 28.0537
1218 1 -0.764396 11.409 13.1352
1219 1 -2.87963 28.6427 -0.834596
1220 1 33.8893 5.01714 12.0552
1221 1 11.2863 8.85227 15.5627
1222 1 37.8856 24.9339 38.0843
1223 1 24.5983 3.88275 33.1762
1224 1 18.8 2.67387 37.9928
1225 1 12.2922 9.6385 12.6386
1226 1 26.7584 32.3599 -0.111642
1227 1 -1.27056 32.3397 37.219
1228 1 27.3152 4.92605 24.8874
1229 1 12.6357 31.8436 7.39523
1230 1 -1.59723 25.202 15.9951
1231 1 33.6444 35.3155 13.0138
1232 1 30.9887 23.451 37.328
1233 1 19.8939 24.8338 34.1934
1234 1 3.4293 3.81401 35.1771
1235 1 34.8734 9.83556 18.6112
1236 1 35.2784 -1.09929 23.1602
1237 1 28.1039 18.4764 4.8891
1238 1 1.96071 34.599 2.16053
1239 1 26.7835 21.6184 17.5895
1240 1 8.82389 26.0555 32.0785
1241 1 -2.30846 0.525377 10.5632
1242 1 27.2108 28.5943 -2.81045
1243 1 35.5547 6.0176 30.9091
1244 1 34.4486 34.0299 34.0938
1245 1 9.79359 16.3334 13.9557
1246 1 9.00628 15.8687 33.0314
1247 1 1.95101 23.4122 17.7388
1248 1 26.0097 35.4859 30.4735
1249 1 32.7263 6.53035 5.07606
1250 1 4.19709 18.0925 6.30585
1251 1 10.8824 19.4388 22.8407
1252 1 26.9354 6.52919 37.4169
1253 1 24.1744 16.9368 5.49184
1254 1 -1.62194 3.00084 12.2471
1255 1 10.7873 -1.90945 1.85887
1256 1 0.750074 -1.8012 36.3431
1257 1 21.3011 28.129 4.44554
1258 1 1.68014 5.37861 10.3512
1259 1 19.1114 11.5732 34.7022
1260 1 19.3373 -2.5595 18.794
1261 1 8.00342 -2.59 24.1154
1262 1 32.5532 31.5698 2.71
1263 1 16.5987 37.6183 10.4243
1264 1 3.1466 22.6542 38.1954
1265 1 22.3724 5.98663 16.0459
1266 1 38.0421 -1.42648 6.09406
1267 1 19.9479 1.2637 23.2624
1268 1 25.3033 -0.863495 33.6425
1269 1 33.1188 16.1797 3.93733
1270 1 36.1544 -0.482292 31.3783
1271 1 -2.07929 21.8361 -1.38655
1272 1 30.6584 -1.02714 26.0833
1273 1 13.2364 12.6916 21.7829
1274 1 28.6671 23.3827 -1.36835
1275 1 28.3631 15.6835 25.7665
1276 1 35.1099 23.4577 18.6624
1277 1 15.0109 21.1752 5.85159
1278 1 7.49243 10.7549 9.71938
1279 1 22.0544 16.4221 23.6142
1280 1 14.664 18.1084 2.00106
1281 1 36.6207 3.88315 22.0785
1282 1 36.5962 4.53846 13.1958
1283 1 26.424 8.42991 34.8929
1284 1 8.28967 23.0915 38.5427
1285 1 31.1741 0.0140091 -1.46332
1286 1 35.0147 -2.613 26.6361
1287 1 38.2437 10.3641 31.7023
1288 1 19.2658 4.21646 15.2386
1289 1 6.3875 22.9641 8.12924
1290 1 -0.540662 15.076 4.33057
1291 1 21.2953 11.0447 3.60647
1292 1 12.5288 7.60046 29.4546
1293 1 35.1474 27.9796 24.161
1294 1 3.94454 23.2185 11.5398
1295 1 26.4335 38.2069 19.6812
1296 1 27.2893 24.1842 35.6732
1297 1 19.0463 36.9111 9.32524
1298 1 20.1076 27.1604 24.7043
1299 1 10.5371 36.4546 23.8253
1300 1 23.6352 22.8463 16.0264
1301 1 1.6094 20.564 7.12606
1302 1 1.28976 -0.810848 15.1241
1303 1 3.09395 31.0927 28.5325
1304 1 38.1451 25.5774 9.96348
1305 1 21.6894 14.916 1.81261
1306 1 14.9648 5.2061 -0.243794
1307 1 10.2532 22.542 24.0571
1308 1 6.81399 21.588 -0.536938
1309 1 36.0201 24.5436 30.681
1310 1 16.0412 2.2099 35.6586
1311 1 -0.134148 16.19 11.7548
1312 1 24.4991 31.6002 35.3603
1313 1 13.3827 35.4799 12.5075
1314 1 37.1962 9.52979 32.0028
1315 1 37.0914 2.44771 10.5459
1316 1 32.965 22.319 20.9883
1317 1 25.4233 9.52478 29.4671
1318 1 15.5292 31.5885 35.1828
1319 1 31.3092 24.8647 -2.04513
1320 1 38.2352 10.0111 18.2134
1321 1 0.878533 10.9546 7.89871
1322 1 -0.637392 1.01571 2.94724
1323 1 17.7658 34.3297 3.55415
1324 1 7.97056 8.02009 35.1561
1325 1 11.4921 17.7143 38.2256
1326 1 22.5533 4.2007 8.76355
1327 1 6.60845 6.00978 3.05704
1328 1 25.6097 5.21688 -1.17413
1329 1 35.8894 16.849 32.608
1330 1 11.9642 4.79711 27.5836
1331 1 7.33919 36.1843 2.58994
1332 1 -1.63562 18.7968 34.0537
1333 1 -1.83658 36.5572 36.6354
1334 1 5.92167 38.2603 25.6667
1335 1 17.5451 15.5429 10.9571
1336 1 12.4555 27.2731 18.7443
1337 1 10.0696 38.022 22.6425
1338 1 1.16565 30.1981 20.3427
1339 1 20.1142 5.40177 37.9767
1340 1 11.3508 24.6862 38.3506
1341 1 9.52721 3.62329 9.44618
1342 1 0.262156 18.3828 16.2195
1343 1 -0.684491 -0.482671 15.0805
1344 1 3.57188 14.1334 9.00953
1345 1 6.85154 37.4873 21.6577
1346 1 16.7608 31.3606 26.3446
1347 1 6.23903 35.517 23.5437
1348 1 38.1175 -1.08206 12.2689
1349 1 10.846 14.1315 12.7781
1350 1 3.06675 -2.99692 1.05322
1351 1 34.1702 -3.12426 6.95074
1352 1 27.4648 -2.46778 -1.49542
1353 1 9.018 36.4252 15.9119
1354 1 33.3447 14.2023 -2.40936
1355 1 14.5517 -2.53515 -0.473532
1356 1 -1.72434 38.6935 18.7522
1357 1 13.6171 26.8024 18.1244
1358 1 28.1861 0.452424 17.7643
1359 1 36.5003 24.9229 27.0148
1360 1 23.7811 -1.71134 12.9549
1361 1 -1.52003 9.19648 18.7317
1362 1 30.0012 9.0086 36.3612
1363 1 14.8691 24.0669 -0.321328
1364 1 9.96347 16.1077 16.684
1365 1 -0.859775 25.1954 0.136568
1366 1 5.63912 34.3163 13.5917
1367 1 17.9699 12.6194 -0.179429
1368 1 14.8927 14.4822 29.3324
1369 1 -2.60132 1.21817 13.3874
1370 1 37.7387 -0.802259 20.038
1371 1 -1.15016 21.2011 16.8539
1372 1 -1.79922 -0.399078 38.3185
1373 1 0.790434 35.5292 15.2036
1374 1 32.6859 28.4005 2.71009
1375 1 6.39645 6.94156 9.38941
1376 1 22.303 17.0338 22.4655
1377 1 5.16802 30.4066 38.2878
1378 1 37.3555 -0.00807636 3.57013
1379 1 2.47384 15.8955 11.1002
1380 1 15.5252 12.7227 38.3768
1381 1 31.3703 20.9821 -0.0862786
1382 1 16.1157 27.0707 23.739
1383 1 5.6439 7.39084 -0.124169
1384 1 21.8827 35.7706 36.1274
1385 1 19.0561 12.0331 33.4478
1386 1 9.09173 4.1657 33.7899
1387 1 12.868 27.625 -1.39542
1388 1 21.8452 19.2992 24.2195
1389 1 15.6661 28.6515 26.688
1390 1 5.0954 24.6564 28.2522
1391 1 27.9027 8.60822 0.918973
1392 1 20.8045 17.3788 8.01632
1393 1 24.7918 26.6752 14.4971
1394 1 26.8877 34.8242 35.6995
1395 1 13.3737 33.9526 27.4923
1396 1 16.497 27.6569 35.497
1397 1 30.587 1.97079 5.62261
1398 1 28.9505 3.97717 7.19108
1399 1 2.9397 24.924 11.6864
1400 1 24.8793 5.79001 15.7773
1401 1 33.6074 4.06984 32.1707
1402 1 22.7517 16.6917 -1.57731
1403 1 13.4051 30.8481 5.81994
1404 1 -2.05373 11.8048 10.4333
1405 1 35.8923 21.0666 36.58
1406 1 10.8644 -0.140476 24.1593
1407 1 36.9169 1.74671 11.7156
1408 1 -1.0081 34.4785 28.6834
1409 1 7.0429 14.2264 26.9385
1410 1 14.9668 4.09902 7.02155
1411 1 29.1253 28.0042 -2.59532
1412 1 17.7671 2.66239 4.2989
1413 1 37.1889 6.52037 7.53364
1414 1 28.3641 35.813 36.6092
1415 1 28.1737 34.6842 21.2435
1416 1 -0.449431 3.58108 27.1216
1417 1 17.2655 36.691 28.9109
1418 1 22.0043 33.8469 -2.29541
1419 1 14.8311 8.75167 -0.261617
1420 1 15.7171 22.8751 26.0146
1421 1 17.0719 15.0696 34.5364
1422 1 -0.531051 33.978 10.3765
1423 1 0.0124148 25.9302 11.946
1424 1 13.3619 20.5956 9.95208
1425 1 34.7063 31.3201 9.80969
1426 1 32.0977 26.5297 33.998
1427 1 16.9303 34.0546 0.383403
1428 1 16.3954 35.6154 14.0553
1429 1 18.5334 -0.489341 25.8424
1430 1 33.2647 38.2952 20.4872
1431 1 8.00764 21.4771 -2.15837
1432 1 21.3155 30.7111 4.93318
1433 1 21.8457 -1.26458 17.5302
1434 1 -2.51462 20.8555 26.1982
1435 1 16.019 -1.93695 6.09984
1436 1 1.76679 17.9943 -2.95002
1437 1 16.7925 23.019 6.16832
1438 1 24.1372 12.3757 8.47917
1439 1 29.1865 7.82508 2.23769
1440 1 -3.02793 35.9874 16.5358
1441 1 23.7369 22.4407 25.9619
1442 1 34.4196 9.5343 27.3952
1443 1 16.9975 30.1006 23.156
1444 1 8.69449 10.2359 15.2806
1445 1 34.3337 11.0327 9.77201
1446 1 21.9892 7.99716 21.2522
1447 1 25.2636 33.527 8.39008
1448 1 24.9634 17.6872 23.799
1449 1 13.5416 38.3319 8.21832
1450 1 8.39985 28.5909 30.7489
1451 1 -1.16508 5.24258 -2.76911
1452 1 35.7229 9.36575 33.3758
1453 1 11.7891 -2.64897 15.8244
1454 1 17.2146 19.2928 15.6885
1455 1 15.458 -1.38591 26.1279
1456 1 15.9598 19.6746 25.6461
1457 1 32.7374 35.8011 -1.35254
1458 1 31.309 22.1979 7.76048
1459 1 38.1943 24.9509 5.88272
1460 1 12.5922 31.018 4.70889
1461 1 4.55305 36.7907 25.6064
1462 1 30.1615 38.1852 23.0275
1463 1 22.5138 1.39002 -0.198365
1464 1 5.80412 35.2146 20.3989
1465 1 25.8715 10.5565 32.0841
1466 1 13.3924 9.0652 17.2532
1467 1 4.28221 34.8018 25.3706
1468 1 13.1929 21.7305 -1.59325
1469 1 1.11502 32.0376 3.03524
1470 1 12.5579 1.55551 0.526699
1471 1 10.6035 13.09 3.38379
1472 1 10.5064 14.8667 33.9928
1473 1 11.9904 13.9094 4.56939
1474 1 12.6108 30.7868 16.4408
1475 1 35.3891 0.892121 30.1548
1476 1 36.0162 11.8487 5.71668
1477 1 15.7785 35.7546 18.3823
1478 1 17.2983 24.4118 13.6387
1479 1 17.1193 25.316 30.588
1480 1 32.8751 8.11929 6.77563
1481 1 0.251994 0.149918 25.5337
1482 1 17.7371 4.47028 27.3616
1483 1 24.3208 33.1092 19.0993
1484 1 -0.196742 34.4818 20.5205
1485 1 14.4165 12.7558 26.2804
1486 1 27.0856 11.6087 30.8779
1487 1 22.1028 25.2502 0.683549
1488 1 3.17144 9.02054 11.3005
1489 1 36.0362 10.032 10.1805
1490 1 4.03599 0.763556 32.4046
1491 1 23.5838 8.50997 6.65581
1492 1 22.7572 17.5 27.7647
1493 1 38.5118 36.1134 34.176
1494 1 25.442 28.8896 22.8549
1495 1 32.3243 -1.39032 33.7216
1496 1 10.7463 26.6874 31.9015
1497 1 5.71287 21.9801 1.75973
1498 1 -1.46161 35.7608 34.7866
1499 1 2.36017 25.4648 19.0498
1500 1 22.3296 0.411215 31.8948
1501 1 21.6925 34.5837 5.72402
1502 1 18.2931 -2.36096 26.5266
1503 1 19.6982 16.7367 9.61081
1504 1 11.3021 36.1643 1.94313
1505 1 35.0917 13.1212 26.0015
1506 1 19.9098 -2.11481 21.72
1507 1 24.5912 36.4354 0.350569
1508 1 7.46765 19.2821 6.16538
1509 1 9.59686 35.5787 24.3181
1510 1 16.8962 30.7233 37.9949
1511 1 11.2671 15.1749 7.22166
1512 1 2.48279 20.4932 34.4027
1513 1 22.5114 7.98661 16.3225
1514 1 35.7014 7.17013 30.1287
1515 1 6.25375 33.2993 35.8767
1516 1 21.6307 15.4892 16.2975
1517 1 14.1561 24.7106 9.99746
1518 1 37.7676 12.8681 -2.46221
1519 1 22.21 3.34699 28.6593
1520 1 36.4038 30.6362 26.387
1521 1 21.9648 33.1497 12.6071
1522 1 3.74378 -2.26218 1.92172
1523 1 25.602 22.4417 25.1837
1524 1 15.8737 25.5992 3.25511
1525 1 -0.578764 35.2933 24.8678
1526 1 25.8506 20.1326 6.10488
1527 1 32.9772 4.46287 8.52519
1528 1 17.2045 27.6918 -2.20139
1529 1 35.0369 26.9791 12.3719
1530 1 25.801 21.7659 28.7633
1531 1 23.722 33.8446 26.1643
1532 1 21.7534 22.1047 26.009
1533 1 8.65811 9.70628 23.9324
1534 1 17.5489 6.56875 12.8202
1535 1 33.7686 28.9028 15.7508
1536 1 3.35005 24.2861 3.22375
1537 1 29.9417 38.6713 37.2744
1538 1 30.0668 -2.16041 12.8571
1539 1 6.2289 32.2914 17.7138
1540 1 19.1201 17.2602 6.91572
1541 1 11.2914 21.142 18.3348
1542 1 27.7201 3.58751 12.5142
1543 1 29.6469 35.6817 10.633
1544 1 21.8465 33.5732 34.6131
1545 1 6.77031 19.1888 23.7342
1546 1 26.8933 5.58227 10.1383
1547 1 33.2189 1.18281 15.3496
1548 1 36.6357 36.0269 29.0068
1549 1 31.7557 21.7948 35.0976
1550 1 1.14062 27.2574 26.7949
1551 1 -1.63142 17.5165 23.9701
1552 1 26.889 13.1451 26.3975
1553 1 11.2939 17.0505 29.6201
1554 1 17.45 22.8163 2.23924
1555 1 15.1823 30.8425 23.5402
1556 1 28.2821 1.75493 30.0292
1557 1 24.1865 29.6362 0.123424
1558 1 6.74806 16.0653 35.2626
1559 1 36.1376 16.6826 20.6681
1560 1 21.9736 22.7947 19.1386
1561 1 15.7742 5.4775 21.5103
1562 1 10.8354 15.7497 1.34532
1563 1 3.67406 -2.85143 -1.22101
1564 1 -1.45794 18.9875 28.1991
1565 1 10.5827 33.8055 17.3281
1566 1 29.0853 9.84516 34.049
1567 1 36.6719 17.5913 30.2144
1568 1 29.0685 0.692019 33.0682
1569 1 30.8573 29.297 21.9723
1570 1 34.8996 1.55587 33.1803
1571 1 30.111 16.2164 26.5937
1572 1 1.07488 22.883 0.329267
1573 1 1.72702 34.0047 18.8381
1574 1 23.5718 21.9562 -2.90464
1575 1 9.32979 22.9172 -1.6021
1576 1 33.2761 12.4858 21.3841
1577 1 10.9699 3.14206 28.1706
1578 1 1.50097 37.558 6.78262
1579 1 15.6689 13.7948 0.485467
1580 1 13.1588 28.1648 35.0681
1581 1 11.6321 6.05431 35.9442
1582 1 35.3116 10.1408 12.9194
1583 1 1.92092 2.47297 24.8655
1584 1 17.6755 30.3949 36.9599
1585 1 35.7292 29.5526 9.7859
1586 1 7.1094 0.628806 -2.75794
1587 1 24.736 16.7169 -1.23357
1588 1 13.8178 19.0381 17.2382
1589 1 19.4262 7.3532 29.7699
1590 1 20.3681 10.3994 36.8205
1591 1 6.75061 25.8657 26.2816
1592 1 33.347 29.3191 29.5506
1593 1 7.9896 37.6737 12.3606
1594 1 34.2062 4.61861 10.1024
1595 1 38.0729 3.4049 1.24513
1596 1 6.49928 35.2122 12.0229
1597 1 4.18987 12.2098 14.2707
1598 1 10.7762 1.07557 3.22718
1599 1 8.00368 -0.516634 26.5858
1600 1 26.3371 2.82215 -0.0227169
1601 1 20.7815 16.8322 0.746798
1602 1 25.0742 38.0173 38.0814
1603 1 32.0533 29.1086 24.7582
1604 1 19.1823 11.9031 12.7448
1605 1 0.641925 12.0519 27.4193
1606 1 13.7885 28.8434 2.96796
1607 1 23.388 3.22739 11.5082
1608 1 9.22221 26.6555 17.3674
1609 1 27.6895 18.8561 35.4508
1610 1 4.39043 21.2584 36.652
1611 1 -3.0889 8.67819 24.1167
1612 1 16.4702 12.4426 16.2386
1613 1 12.1836 28.4474 25.172
1614 1 30.3566 4.73656 2.8396
1615 1 0.271193 -1.0915 27.1048
1616 1 31.9474 1.33699 2.12141
1617 1 12.7376 16.0271 27.2042
1618 1 11.6989 17.116 17.0621
1619 1 10.5224 -2.56462 -1.32461
1620 1 -0.0191755 16.7173 31.6077
1621 1 -2.81462 15.4623 14.3358
1622 1 19.0262 -2.47178 2.86027
1623 1 35.3672 25.751 33.3405
1624 1 16.5594 25.0588 27.2662
1625 1 28.319 18.7218 8.61686
1626 1 -2.646 5.72691 1.54022
1627 1 6.21919 24.3735 37.8491
1628 1 13.095 2.01129 27.4036
1629 1 8.20752 32.044 32.3892
1630 1 15.8592 11.7138 28.8531
1631 1 0.409798 25.189 16.1923
1632 1 25.0492 32.0046 7.08808
1633 1 1.24594 2.61713 33.1874
1634 1 11.5009 9.90548 1.59289
1635 1 24.4507 11.9571 25.6349
1636 1 35.8918 19.203 27.0932
1637 1 24.9558 15.169 15.3091
1638 1 33.3949 2.22605 27.0445
1639 1 29.2439 18.4715 14.0279
1640 1 15.1386 22.9364 18.7609
1641 1 0.994148 24.4107 26.7665
1642 1 31.7345 34.7268 30.4086
1643 1 21.4874 22.9751 -0.828912
1644 1 15.8639 28.4616 28.6714
1645 1 22.613 26.1413 31.6996
1646 1 -0.209856 11.3149 15.9959
1647 1 32.2354 0.363887 10.6597
1648 1 36.6328 27.1183 14.9291
1649 1 1.87797 37.4737 2.83264
1650 1 1.96686 7.53914 11.964
1651 1 5.46628 35.9495 34.7829
1652 1 7.46697 32.5268 1.63021
1653 1 28.0922 33.1493 14.7021
1654 1 17.0068 1.01653 8.30596
1655 1 29.674 13.1055 25.9097
1656 1 29.1393 32.554 15.345
1657 1 -1.06354 20.2827 4.0269
1658 1 14.0735 34.0827 16.8896
1659 1 10.8652 10.9356 27.6219
1660 1 16.6976 33.0627 1.44962
1661 1 17.182 30.4914 35.0173
1662 1 11.4241 9.1384 31.8449
1663 1 27.34 14.9568 10.9862
1664 1 6.61849 38.521 5.11152
1665 1 -2.53089 19.3604 37.8358
1666 1 -3.00808 37.1236 -2.0865
1667 1 32.9005 24.8522 28.1754
1668 1 1.92492 21.8959 31.4155
1669 1 29.27 2.8354 -3.07225
1670 1 32.4475 12.3188 18.3563
1671 1 17.3176 0.782609 34.9886
1672 1 10.5565 30.8829 23.8065
1673 1 28.6853 -1.53212 24.5256
1674 1 36.8135 14.6047 -2.67349
1675 1 37.1663 25.1622 3.38934
1676 1 35.479 8.78727 24.3472
1677 1 1.15278 29.3717 23.2808
1678 1 1.04063 -2.35158 27.6966
1679 1 17.2792 3.50716 5.26756
1680 1 2.65606 28.5601 27.1055
1681 1 26.5037 11.0474 8.42815
1682 1 37.3227 27.0112 0.192837
1683 1 18.2289 13.6468 1.03426
1684 1 2.17492 5.17911 17.3996
1685 1 16.3644 6.09711 31.3785
1686 1 22.1348 17.7756 1.88468
1687 1 4.18343 0.127282 12.2504
1688 1 8.01074 -0.464699 7.11066
1689 1 26.9958 24.6272 12.9488
1690 1 20.1006 6.28681 17.867
1691 1 5.44212 5.53331 8.33341
1692 1 18.0477 -3.11778 1.88045
1693 1 31.4048 -2.33736 10.3259
1694 1 18.1749 6.42236 27.0272
1695 1 28.2484 35.285 29.0351
1696 1 -2.11878 13.6378 6.99566
1697 1 12.4543 1.20931 36.3881
1698 1 12.0314 38.5815 28.9102
1699 1 5.51263 15.4495 10.9477
1700 1 36.8849 12.0317 -1.76155
1701 1 34.7195 12.095 0.276144
1702 1 2.3035 13.1856 27.3877
1703 1 23.9954 34.7522 10.4308
1704 1 20.8439 26.2942 6.91202
1705 1 14.6284 36.9567 9.22027
1706 1 25.4528 -0.336232 17.3303
1707 1 31.353 -2.6338 28.1887
1708 1 17.532 26.1639 20.9103
1709 1 19.1864 33.4263 23.6398
1710 1 10.7306 11.0942 9.46006
1711 1 20.8883 24.8836 29.9211
1712 1 34.595 26.2568 13.5234
1713 1 15.2782 30.7822 17.8365
1714 1 4.8618 18.4901 37.1652
1715 1 29.5884 6.39478 -0.29489
1716 1 26.4397 17.5121 10.1204
1717 1 26.041 23.9768 4.24337
1718 1 8.4647 27.796 19.8375
1719 1 23.5242 7.50952 -0.437746
1720 1 10.2814 12.3558 35.3379
1721 1 35.5316 27.1741 4.42451
1722 1 26.1856 4.89671 33.82
1723 1 24.2223 15.2002 26.9126
1724 1 33.4207 32.5875 13.471
1725 1 35.1573 23.8839 36.8979
1726 1 29.7579 14.0675 -2.47154
1727 1 12.2773 22.1182 37.3802
1728 1 4.29276 16.3803 -2.76885
1729 1 23.4848 22.9248 24.0014
1730 1 13.2212 33.0809 7.73118
1731 1 31.4945 0.695981 25.4527
1732 1 15.3481 37.2457 6.30537
1733 1 8.38768 38.0613 4.2646
1734 1 0.65332 35.8835 2.93203
1735 1 31.265 37.8875 28.4198
1736 1 1.49834 19.605 17.2497
1737 1 -2.13357 0.254685 20.6262
1738 1 6.10164 24.3437 0.347833
1739 1 24.3374 12.8451 35.5968
1740 1 35.1668 17.52 31.5532
1741 1 22.8823 28.6361 21.0176
1742 1 35.0839 23.5232 26.6973
1743 1 17.7919 18.6298 35.1796
1744 1 27.0463 3.65557 9.60354
1745 1 19.1055 7.61365 32.6703
1746 1 28.9239 -0.70939 21.5899
1747 1 32.93 11.7241 1.12825
1748 1 -2.41217 21.4745 6.37492
1749 1 27.3447 5.54643 17.4924
1750 1 33.6395 26.2479 0.520198
1751 1 10.12 24.7489 19.1334
1752 1 4.69767 25.0361 37.2499
1753 1 14.3629 10.9297 11.3946
1754 1 37.4056 0.355126 28.799
1755 1 13.6445 7.89582 24.9955
1756 1 0.381388 1.48395 22.6638
1757 1 0.401837 27.1712 6.70091
1758 1 8.06994 37.7592 28.3049
1759 1 29.7046 36.6219 28.5832
1760 1 6.36311 13.2116 1.22242
1761 1 26.9042 11.0529 35.8251
1762 1 22.6988 13.9109 27.0627
1763 1 27.3457 11.8314 24.9595
1764 1 16.0325 37.9913 20.2133
1765 1 26.7472 9.48968 3.39004
1766 1 12.4678 36.1801 -1.93091
1767 1 24.5675 15.0642 10.2864
1768 1 35.105 11.9219 26.776
1769 1 23.5636 35.2169 28.1872
1770 1 4.79705 14.1142 28.7186
1771 1 12.6333 7.15033 12.9897
1772 1 -3.06356 24.1099 26.1293
1773 1 18.2678 36.0286 32.0734
1774 1 11.5991 19.2951 14.9235
1775 1 4.72353 15.2886 19.1019
1776 1 4.36382 30.3901 11.2815
1777 1 34.7239 16.8979 38.2616
1778 1 -0.292983 25.337 36.4227
1779 1 19.0399 36.3892 13.0606
1780 1 13.2897 -0.236678 22.5726
1781 1 -2.58585 4.13264 13.5827
1782 1 14.6631 29.7425 32.6929
1783 1 1.72346 15.2034 -0.0547724
1784 1 5.96132 5.37915 33.3506
1785 1 31.4622 31.9341 23.5781
1786 1 35.0007 34.2005 22.0104
1787 1 37.7621 13.9893 7.30262
1788 1 15.1724 2.38182 22.3533
1789 1 28.7648 33.4885 33.6237
1790 1 26.0173 31.7996 4.8597
1791 1 0.135765 19.7175 14.2652
1792 1 19.2055 -2.80096 28.2483
1793 1 4.3356 3.34673 5.69617
1794 1 8.44236 5.2019 0.668186
1795 1 3.36924 10.4118 14.5485
1796 1 -2.82581 23.4572 10.8416
1797 1 31.2346 -1.11891 0.235551
1798 1 3.3371 11.706 36.6806
1799 1 10.7392 27.6844 0.599319
1800 1 1.53964 36.4423 33.4009
1801 1 15.6299 21.0364 25.1692
1802 1 16.4558 22.0123 22.3407
1803 1 11.2481 31.7823 9.6103
1804 1 30.2993 14.9339 10.6848
1805 1 27.625 1.09933 35.5942
1806 1 18.1778 9.98589 8.16224
1807 1 37.4853 10.6932 7.64214
1808 1 16.6442 34.4932 33.6751
1809 1 1.22639 30.7487 10.2792
1810 1 4.67712 19.976 6.87456
1811 1 15.0411 26.9942 12.0323
1812 1 17.8339 25.1338 27.7294
1813 1 37.7913 32.6665 3.38944
1814 1 22.2257 17.7901 35.4086
1815 1 14.5639 21.0192 32.8659
1816 1 6.40531 24.4563 23.1787
1817 1 15.2638 9.38413 16.5638
1818 1 1.85567 0.753345 28.0206
1819 1 -1.03192 22.4106 33.0215
1820 1 17.3311 -0.373002 1.4056
1821 1 -0.855136 18.5371 38.664
1822 1 24.9699 4.26386 -0.318488
1823 1 13.3671 13.7876 22.4835
1824 1 26.8552 19.8041 31.582
1825 1 16.4523 -1.86653 21.676
1826 1 -0.444199 18.8825 26.4609
1827 1 15.9974 8.58162 0.557634
1828 1 6.22316 4.08434 35.9318
1829 1 14.3052 19.3652 22.5613
1830 1 32.4787 12.6106 -1.64859
1831 1 2.13791 8.33356 28.9253
1832 1 23.627 38.2 35.7262
1833 1 -2.54874 13.4714 23.0542
1834 1 10.4978 28.1107 5.45383
1835 1 7.57653 -0.48734 34.1714
1836 1 13.194 10.9023 18.094
1837 1 7.44436 20.5327 34.5344
1838 1 18.3378 23.78 36.9646
1839 1 -1.84601 32.3538 21.3454
1840 1 34.7879 10.7099 15.8863
1841 1 36.0363 22.1571 28.8196
1842 1 19.1291 24.4312 29.0952
1843 1 15.4981 34.313 5.26778
1844 1 3.86479 22.4572 -0.651283
1845 1 4.93067 17.4149 32.6304
1846 1 31.9551 31.884 18.0656
1847 1 -3.05347 5.84044 22.7915
1848 1 17.3767 16.1692 13.7731
1849 1 1.17591 4.00774 3.90185
1850 1 21.7349 21.7477 18.1866
1851 1 24.719 5.71094 2.89658
1852 1 32.3685 5.56726 30.5564
1853 1 27.2986 2.25634 34.809
1854 1 26.8707 30.9321 2.59004
1855 1 37.1428 35.4613 6.20161
1856 1 19.0948 21.3905 6.17161
1857 1 7.73959 4.18606 18.5968
1858 1 10.3957 -0.117178 2.66785
1859 1 33.1763 23.1714 34.6244
1860 1 24.5551 -2.69578 33.2947
1861 1 7.3473 5.15386 13.3442
1862 1 12.2664 -1.20805 0.695899
1863 1 13.6507 25.8678 13.8244
1864 1 31.8097 9.82509 9.55188
1865 1 23.9982 3.58044 22.2547
1866 1 -0.755244 36.0911 7.54193
1867 1 20.1735 7.7664 5.65819
1868 1 33.1149 32.0639 26.1647
1869 1 4.05487 5.4332 38.2568
1870 1 14.1611 24.1021 11.2123
1871 1 1.42267 10.1416 -2.40188
1872 1 6.29321 21.3875 35.9878
1873 1 29.977 27.6153 15.2131
1874 1 34.7399 8.78115 30.8143
1875 1 9.12506 -0.64243 32.9127
1876 1 32.5835 14.8305 26.719
1877 1 -3.00767 8.79687 0.736705
1878 1 10.9288 11.0732 35.3051
1879 1 23.4311 16.3171 7.25806
1880 1 32.7175 -1.86299 7.58599
1881 1 8.20192 20.1186 -2.29651
1882 1 8.22188 30.3947 37.1219
1883 1 -0.738816 22.2278 1.90067
1884 1 0.861625 24.6446 3.02369
1885 1 -0.578299 37.0197 10.3494
1886 1 -2.35455 21.9191 36.6122
1887 1 21.9522 28.717 33.0828
1888 1 34.9888 11.5974 -2.31972
1889 1 -0.334899 4.28504 20.8746
1890 1 18.7729 25.9715 31.5425
1891 1 32.6204 25.1861 26.2178
1892 1 19.0575 23.9682 19.5916
1893 1 35.1941 37.7514 36.1403
1894 1 2.98142 21.9815 12.8298
1895 1 18.1511 18.4407 18.5172
1896 1 21.8346 14.6764 13.4293
1897 1 12.7835 -2.57176 27.2078
1898 1 23.8347 36.3922 33.1519
1899 1 37.84 11.3608 23.1218
1900 1 34.1199 18.4874 25.0236
1901 1 19.7643 25.7604 35.3124
1902 1 18.7468 28.7789 -2.91845
1903 1 15.0959 21.0796 29.9327
1904 1 7.46067 25.3572 -0.760139
1905 1 27.3592 5.02594 36.1592
1906 1 1.62095 20.3499 37.3095
1907 1 7.18403 -2.15025 18.333
1908 1 36.4139 37.2013 21.8159
1909 1 14.9959 34.857 28.3008
1910 1 -2.24241 6.10964 31.2193
1911 1 0.149791 31.4996 15.7127
1912 1 9.05096 18.6306 20.1784
1913 1 6.35384 36.6027 38.6028
1914 1 -1.28429 9.19892 23.4334
1915 1 25.6682 -0.555803 10.6929
1916 1 29.2493 -2.43255 26.2314
1917 1 7.27983 6.65973 5.88508
1918 1 3.76145 31.2593 9.56941
1919 1 16.245 5.50705 0.39179
1920 1 -0.340062 28.9399 12.8094
1921 1 7.26672 24.1408 6.73422
1922 1 37.0806 15.8471 4.81412
1923 1 20.4686 20.6156 15.0168
1924 1 -2.12279 2.88479 -1.43647
1925 1 -0.856818 4.06469 -2.3969
1926 1 1.11685 23.5361 10.6328
1927 1 15.1477 38.638 21.0076
1928 1 25.8875 30.5347 38.652
1929 1 9.42752 14.8203 15.2253
1930 1 19.2272 17.6488 -2.68941
1931 1 13.6227 15.3537 21.2158
1932 1 30.6341 15.0812 26.8839
1933 1 -0.837693 12.7287 37.7608
1934 1 23.6353 18.1072 14.7783
1935 1 25.727 30.8043 24.7901
1936 1 17.2157 7.72751 11.7747
1937 1 31.9824 4.1394 0.793718
1938 1 18.7302 6.78724 2.51983
1939 1 16.9852 31.1321 11.9645
1940 1 36.7233 7.5091 19.0995
1941 1 23.6 32.0893 13.0906
1942 1 11.1006 24.6373 3.29475
1943 1 1.5705 20.9566 2.48994
1944 1 3.73998 20.2778 32.8691
1945 1 2.00627 18.0181 18.3787
1946 1 30.8388 5.80094 23.9382
1947 1 2.83402 31.8699 37.0455
1948 1 2.99511 18.8997 9.94377
1949 1 21.637 29.3102 29.2458
1950 1 30.4321 27.9574 18.19
1951 1 25.6827 2.1839 19.1762
1952 1 21.9476 20.3169 38.5689
1953 1 5.80283 2.02013 6.05822
1954 1 31.861 -2.67755 3.2098
1955 1 27.9837 7.09947 13.7444
1956 1 -2.36595 15.1386 1.9783
1957 1 11.72 26.8427 26.3039
1958 1 6.27819 24.1575 16.4435
1959 1 22.878 34.77 7.35837
1960 1 34.5337 4.58314 5.67468
1961 1 19.0256 14.8472 27.6782
1962 1 28.5923 21.526 23.7728
1963 1 8.25609 15.2795 22.549
1964 1 23.0006 23.848 12.233
1965 1 25.6727 21.4318 31.5536
1966 1 3.63922 11.8727 -1.76328
1967 1 16.7579 19.1181 36.0142
1968 1 0.736646 7.95824 7.20417
1969 1 1.60163 15.6773 28.0924
1970 1 -2.20792 2.85986 33.9054
1971 1 -1.41778 12.97 31.9039
1972 1 30.4182 8.98568 7.70577
1973 1 23.0455 -2.2196 24.2472
1974 1 25.4488 -0.955373 -2.86087
1975 1 32.0086 20.5085 -2.92502
1976 1 19.4838 2.67724 27.1773
1977 1 35.4362 29.4068 -0.599208
1978 1 -0.674144 36.2234 -0.314884
1979 1 1.5028 18.8043 26.9791
1980 1 19.4634 8.02193 -2.89594
1981 1 33.7132 9.90229 7.19447
1982 1 6.17976 15.2151 31.0829
1983 1 28.1885 25.0357 5.14369
1984 1 8.81036 33.8984 -0.119212
1985 1 28.4746 -2.54201 32.5067
1986 1 -1.78308 33.5073 0.0122405
1987 1 36.0006 35.6176 17.9844
1988 1 8.33487 38.0753 -2.7727
1989 1 20.5688 25.4847 5.90791
1990 1 14.3471 26.6079 25.9913
1991 1 20.4394 -3.12141 22.3378
1992 1 23.8585 0.974076 23.552
1993 1 18.0331 3.24214 -2.06752
1994 1 19.5673 9.25385 23.8361
1995 1 15.0844 38.3315 23.8032
1996 1 21.5352 34.2676 24.6845
1997 1 18.0544 25.2037 17.0413
1998 1 3.37959 13.8837 24.2435
1999 1 18.2362 13.0673 23.0686
2000 1 27.71 33.9695 28.8424
2001 1 21.4016 35.4663 15.7374
2002 1 -0.171798 29.8963 26.2277
2003 1 24.2319 18.8073 27.3908
2004 1 6.76164 7.0583 2.23398
2005 1 5.33267 -1.16925 35.694
2006 1 -2.20652 19.4281 24.0212
2007 1 16.1535 0.897784 17.0952
2008 1 33.2825 33.185 36.9675
2009 1 27.9927 27.1793 33.3725
2010 1 14.0192 3.9293 0.955318
2011 1 1.14112 18.1885 13.429
2012 1 28.8438 32.2067 2.10839
2013 1 37.1413 12.1187 28.3822
2014 1 24.4976 24.3852 20.0035
2015 1 26.6425 6.86975 22.6711
2016 1 2.79634 0.206679 29.7098
2017 1 2.40958 31.1733 -2.99258
2018 1 23.7712 24.9799 18.2097
2019 1 28.9607 33.1768 37.2754
2020 1 28.2896 37.6783 -1.12929
2021 1 26.0819 22.2407 0.614195
2022 1 28.6541 12.9977 22.2222
2023 1 22.9563 24.2324 27.6748
2024 1 15.7594 1.1126 5.8345
2025 1 16.1299 11.1704 -2.36415
2026 1 24.9605 18.1885 4.10846
2027 1 30.7001 28.3911 4.83479
2028 1 33.0259 9.01055 18.8222
2029 1 2.24236 25.9355 32.221
2030 1 12.3265 21.8074 2.65359
2031 1 14.1311 5.87575 32.7505
2032 1 13.1807 22.9521 7.77054
2033 1 12.107 3.17834 7.45567
2034 1 8.36617 30.0599 32.1178
2035 1 17.1848 35.4091 5.17895
2036 1 2.34988 22.9816 9.12777
2037 1 31.3274 35.795 25.0258
2038 1 17.2018 21.8873 24.2286
2039 1 10.6705 34.2389 28.2216
2040 1 29.8251 25.9942 25.6339
2041 1 37.5035 25.2693 16.2688
2042 1 11.5522 11.6133 14.3175
2043 1 11.6902 35.4394 37.2421
2044 1 19.6183 15.6184 24.708
2045 1 24.9697 7.46289 26.9476
2046 1 28.4797 0.718115 21.5863
2047 1 24.4189 27.1038 33.5996
2048 1 10.6004 -1.46411 20.1425
2049 1 36.5399 24.7004 6.96991
2050 1 4.09719 19.2659 1.24077
2051 1 34.9914 -3.06493 0.0299326
2052 1 23.9366 27.7723 36.4656
2053 1 36.9967 33.8339 1.14332
2054 1 25.905 29.8903 30.3047
2055 1 7.28369 19.727 27.6411
2056 1 36.8041 33.0 33.8723
2057 1 8.95018 35.0183 21.1672
2058 1 31.1238 20.0962 28.4689
2059 1 9.28768 24.2957 23.7404
2060 1 22.25 26.6285 12.7644
2061 1 4.26719 5.96897 19.1811
2062 1 -2.7314 -0.609089 28.6274
2063 1 37.5592 24.5444 35.0246
2064 1 3.92757 -2.73664 33.3941
2065 1 -2.59767 14.1742 14.8826
2066 1 34.0379 -0.910751 34.7204
2067 1 16.1165 -1.24562 28.993
2068 1 27.9122 37.4551 32.306
2069 1 8.69078 33.9735 -1.66165
2070 1 18.182 35.4161 30.147
2071 1 25.9904 1.44177 -2.23954
2072 1 -0.161207 30.9736 0.171715
2073 1 4.91185 30.2109 26.3479
2074 1 6.91037 26.4501 10.0415
2075 1 37.0539 21.8762 17.8972
2076 1 12.4525 18.4926 38.5718
2077 1 0.683116 24.6436 -1.58752
2078 1 7.36417 1.17157 16.3453
2079 1 27.6376 27.9845 29.6556
2080 1 2.73726 14.6609 14.4225
2081 1 10.0456 33.545 7.36435
2082 1 31.0949 18.0092 1.90404
2083 1 11.4485 29.2655 24.5254
2084 1 4.96669 26.7599 31.6065
2085 1 -1.69496 9.2442 -2.23515
2086 1 24.6736 24.7225 6.64519
2087 1 34.7621 3.39941 0.360432
2088 1 5.19445 14.0747 32.4151
2089 1 18.783 29.592 5.35977
2090 1 33.0881 27.9197 -2.4358
2091 1 23.2142 11.7969 18.7329
2092 1 34.2655 -1.23306 2.01762
2093 1 35.3489 18.8011 38.5317
2094 1 -2.49545 24.2048 31.337
2095 1 11.8875 12.8541 1.88045
2096 1 3.11627 2.20106 2.60317
2097 1 13.3447 -1.28203 24.2742
2098 1 27.2214 15.2869 4.74879
2099 1 23.3512 -1.55213 -0.949154
2100 1 36.6132 19.9618 7.25595
2101 1 20.201 7.10181 34.3198
2102 1 14.1918 6.72008 21.7234
2103 1 8.41352 17.512 6.13349
2104 1 2.00189 9.97728 20.5408
2105 1 16.3706 29.1458 31.803
2106 1 14.5641 10.7432 26.2391
2107 1 23.2238 12.8766 32.2481
2108 1 20.4954 35.0203 32.5395
2109 1 18.1363 9.80542 28.4389
2110 1 14.9883 22.8649 0.472719
2111 1 17.4259 33.0799 28.1648
2112 1 5.19389 37.9156 12.7842
2113 1 32.5081 32.258 8.47246
2114 1 6.69231 12.11 13.4501
2115 1 16.3604 24.2753 7.65686
2116 1 21.6897 24.9636 28.0303
2117 1 13.2647 18.9317 30.6518
2118 1 31.3804 17.8652 10.7006
2119 1 21.9433 8.79798 -0.297748
2120 1 28.1215 26.9088 11.7462
2121 1 25.5155 27.443 20.6788
2122 1 -1.68689 15.2197 23.5054
2123 1 13.4296 10.7237 -1.95277
2124 1 18.5074 19.041 24.9494
2125 1 27.6651 9.29031 11.584
2126 1 27.8363 13.016 11.0577
2127 1 19.3564 21.0169 19.09
2128 1 -1.17678 -0.270126 6.87243
2129 1 18.3184 17.5161 1.62773
2130 1 38.4854 14.4413 4.59016
2131 1 -1.14205 20.8058 18.8192
2132 1 29.2728 36.7597 13.3939
2133 1 17.54 32.3046 15.5385
2134 1 1.79572 7.17868 -1.2329
2135 1 32.0315 21.5984 24.9886
2136 1 -1.17567 18.2326 9.89639
2137 1 -2.38448 23.8059 13.1656
2138 1 33.3552 33.4459 26.014
2139 1 34.8081 0.111752 9.67692
2140 1 6.16111 23.928 4.42518
2141 1 23.0052 30.1465 -2.92376
2142 1 19.2069 31.1004 24.767
2143 1 23.4438 10.5324 1.80811
2144 1 16.8573 25.4884 38.3842
2145 1 23.5865 4.19181 4.56715
2146 1 21.0149 18.4942 21.9646
2147 1 3.2284 7.60254 9.2165
2148 1 8.18843 14.4294 5.36558
2149 1 9.96138 10.7981 5.69081
2150 1 10.8186 25.5467 14.0406
2151 1 -0.797945 33.3448 19.9242
2152 1 36.6228 5.49935 14.9776
2153 1 31.3735 17.9874 20.9822
2154 1 17.5959 24.1861 23.8773
2155 1 22.4933 29.2779 5.64367
2156 1 26.1608 24.081 -2.82094
2157 1 -2.33163 17.9437 2.91611
2158 1 17.9371 1.23617 -1.90171
2159 1 -0.615721 33.0664 16.714
2160 1 16.2998 2.34327 26.9902
2161 1 35.8783 2.24168 20.2076
2162 1 1.0956 20.7261 -2.02567
2163 1 -1.91135 25.5039 21.4482
2164 1 5.79254 35.9084 36.7579
2165 1 32.5845 19.7243 27.1165
2166 1 13.7468 34.1088 1.81042
2167 1 -1.28612 3.29473 24.4495
2168 1 7.61504 1.10102 11.4988
2169 1 12.8666 28.1502 14.1661
2170 1 22.0189 5.44493 4.47883
2171 1 3.02056 11.8818 11.4404
2172 1 38.6689 31.7906 37.5807
2173 1 12.8074 -2.15644 18.5526
2174 1 19.0667 30.1378 -2.70691
2175 1 24.7897 22.7675 31.7605
2176 1 5.52309 8.93439 4.41126
2177 1 13.0337 33.0123 14.4635
2178 1 37.7781 8.49836 15.669
2179 1 24.0389 38.6861 12.674
2180 1 29.029 16.4753 7.8173
2181 1 36.2169 12.0808 7.03549
2182 1 12.638 17.1758 29.861
2183 1 14.9139 8.85613 5.19951
2184 1 0.770776 27.7531 11.5847
2185 1 22.4762 3.19915 21.0225
2186 1 33.1134 36.0977 17.9588
2187 1 34.291 21.6225 3.82401
2188 1 -2.37335 16.8012 6.25381
2189 1 31.949 -1.03755 15.964
2190 1 4.99647 -0.39927 0.149176
2191 1 0.772324 8.64226 25.0625
2192 1 10.9521 16.2387 32.5451
2193 1 25.1739 8.65897 7.83797
2194 1 28.8712 19.5455 29.8675
2195 1 -0.447316 -0.228803 35.845
2196 1 26.4927 -1.49442 -1.22397
2197 1 38.0648 14.8934 27.8122
2198 1 29.4046 5.57269 38.069
2199 1 19.7138 16.3802 37.6885
2200 1 10.8542 7.3911 6.14705
2201 1 16.0695 -2.56602 28.6577
2202 1 18.6709 11.0181 13.7183
2203 1 33.8447 17.2718 30.0662
2204 1 10.4628 4.29802 7.8067
2205 1 7.98727 1.46143 4.33192
2206 1 10.5746 33.4099 0.707105
2207 1 27.1504 21.4261 0.0381683
2208 1 25.8088 33.1652 13.9329
2209 1 5.79444 16.62 28.4314
2210 1 28.5717 -2.66828 29.505
2211 1 14.453 36.7016 27.6034
2212 1 -1.25484 5.71247 -0.438002
2213 1 11.5541 19.9586 7.62196
2214 1 11.6833 14.7741 20.9895
2215 1 6.70736 22.6824 19.2965
2216 1 35.2655 3.43433 37.8722
2217 1 1.36705 8.1474 -2.04214
2218 1 23.5135 3.78322 17.3155
2219 1 34.9076 21.5049 19.111
2220 1 10.5344 32.8195 24.3478
2221 1 26.3296 11.5211 23.2477
2222 1 27.2676 15.5551 7.69324
2223 1 13.6749 10.0319 35.8684
2224 1 7.49385 32.7714 25.9778
2225 1 30.2964 -0.319981 35.6869
2226 1 36.4649 18.1621 13.3816
2227 1 23.3947 9.4012 5.79851
2228 1 10.7181 19.6679 34.3356
2229 1 -2.04119 -1.29969 36.539
2230 1 33.9101 37.8679 0.205987
2231 1 26.6646 14.1275 15.623
2232 1 21.3623 27.6532 21.88
2233 1 30.3647 8.6784 23.1002
2234 1 10.649 35.5941 14.9908
2235 1 25.3267 35.8158 7.15337
2236 1 10.3396 11.4979 19.1432
2237 1 -0.943565 23.119 8.22254
2238 1 34.0169 25.6928 24.8586
2239 1 10.9829 11.1945 -0.810243
2240 1 -1.90959 30.7152 20.2227
2241 1 20.9359 34.7023 36.03
2242 1 21.6107 -0.942912 -1.80471
2243 1 20.4645 -0.91049 11.9515
2244 1 25.1115 20.321 37.9821
2245 1 3.61311 3.26768 7.56644
2246 1 26.7384 12.1911 34.1653
2247 1 2.4469 10.039 8.74303
2248 1 0.132182 24.0507 32.7938
2249 1 -2.8217 23.6813 19.4005
2250 1 8.76709 -1.36146 5.46608
2251 1 1.88514 23.9427 20.2557
2252 1 -0.91696 36.2973 22.0872
2253 1 17.376 17.4676 29.9011
2254 1 23.4675 13.0589 -1.99568
2255 1 2.91505 26.447 1.77384
2256 1 9.71135 23.115 14.8134
2257 1 38.2139 34.0968 -0.445468
2258 1 30.4187 10.2365 37.9213
2259 1 18.1559 24.9211 0.907825
2260 1 35.1278 19.834 3.45138
2261 1 18.6476 0.865554 4.65616
2262 1 10.3582 9.40784 28.8474
2263 1 2.42615 33.8295 9.94974
2264 1 1.25652 -1.94935 12.097
2265 1 38.1097 13.6082 30.636
2266 1 24.3667 21.8751 4.84017
2267 1 22.8462 37.7588 23.6131
2268 1 36.5845 17.1382 6.27853
2269 1 12.3039 32.5552 20.0221
2270 1 2.0097 13.75 4.47916
2271 1 27.9163 23.2003 38.6795
2272 1 38.6399 33.7636 24.5064
2273 1 2.2669 10.2494 38.3258
2274 1 3.04346 0.342572 17.6128
2275 1 1.32801 13.6389 38.3392
2276 1 3.56058 11.9489 1.85846
2277 1 6.275 36.0189 3.46095
2278 1 16.2139 23.3089 14.9055
2279 1 22.9632 29.4759 11.4196
2280 1 21.0751 31.3796 6.20274
2281 1 8.73898 0.907878 10.6648
2282 1 24.0407 16.1342 14.8576
2283 1 4.10597 6.96718 30.2727
2284 1 20.6805 34.3878 -0.858783
2285 1 27.1751 34.6592 13.7191
2286 1 2.7128 10.1154 1.75916
2287 1 16.5951 20.5137 17.8535
2288 1 0.029679 1.00307 36.4868
2289 1 7.27224 15.2839 33.9278
2290 1 8.37459 14.7672 32.3134
2291 1 4.02902 30.7285 4.604
2292 1 -2.49879 34.2518 9.99764
2293 1 19.058 19.9389 29.3322
2294 1 32.6577 31.9662 29.8724
2295 1 19.3602 38.2772 16.4827
2296 1 38.37 3.33308 29.9899
2297 1 6.00462 13.5736 23.2487
2298 1 2.5614 16.2963 17.4711
2299 1 35.6459 4.19521 18.3954
2300 1 30.0732 8.0186 17.2624
2301 1 8.73375 9.26939 31.1767
2302 1 17.6383 4.87841 9.21317
2303 1 34.2284 33.332 6.44084
2304 1 6.029 23.1257 2.56375
2305 1 9.37055 22.1221 35.2343
2306 1 4.70985 16.0508 32.1688
2307 1 -1.68047 32.8771 7.4762
2308 1 14.5196 14.1691 6.95127
2309 1 25.7608 28.5051 10.9197
2310 1 4.45535 8.21711 7.74454
2311 1 26.9344 25.7241 1.77595
2312 1 12.6864 0.0472414 29.6043
2313 1 7.77925 -1.47128 21.2759
2314 1 22.9198 11.6927 34.7335
2315 1 29.4687 12.3219 35.8231
2316 1 28.7929 5.13592 22.355
2317 1 19.299 8.32946 8.17605
2318 1 0.0417655 23.5757 14.9807
2319 1 21.7217 29.0549 -0.44482
2320 1 0.970035 -0.47036 12.0288
2321 1 13.6918 21.8037 27.7236
2322 1 2.51044 32.5068 14.8127
2323 1 13.1906 24.1596 -2.78517
2324 1 -2.44702 7.37427 2.68217
2325 1 31.8405 31.7983 16.6792
2326 1 21.6271 21.641 0.67314
2327 1 2.22877 33.7281 3.14408
2328 1 3.90519 3.27798 29.312
2329 1 4.01501 10.2328 -0.656912
2330 1 28.4238 25.6847 23.5393
2331 1 35.0193 7.28136 12.5959
2332 1 34.4959 21.2441 0.0526521
2333 1 8.25369 9.79492 1.42642
2334 1 11.0126 28.5762 31.2416
2335 1 37.2244 5.66056 1.77555
2336 1 37.4318 16.3252 38.3432
2337 1 25.0841 12.9865 13.3646
2338 1 32.1687 14.9594 22.5644
2339 1 4.77612 32.2091 26.3442
2340 1 37.9273 0.638494 21.459
2341 1 30.4119 3.63453 33.2893
2342 1 9.80351 16.5958 34.7459
2343 1 25.1772 -1.17708 35.6308
2344 1 27.9124 12.4861 18.2115
2345 1 38.3855 4.70557 38.0681
2346 1 13.7266 -0.504699 8.70856
2347 1 11.2592 25.107 16.9343
2348 1 -1.94594 7.28949 3.88523
2349 1 5.60025 1.0961 29.0282
2350 1 6.96843 10.8109 2.63075
2351 1 15.6467 17.2305 4.73076
2352 1 32.9682 11.1372 7.3623
2353 1 29.2387 23.9895 27.5672
2354 1 8.27931 26.2743 38.6888
2355 1 22.3496 13.9708 9.79596
2356 1 31.3385 22.551 4.62742
2357 1 19.196 31.5311 2.63606
2358 1 20.7656 21.4851 31.2048
2359 1 14.2439 38.5402 13.6657
2360 1 30.1623 15.6574 14.8248
2361 1 -0.765502 1.38236 24.3169
2362 1 22.2877 30.862 7.7241
2363 1 5.77076 11.256 15.8443
2364 1 37.2178 26.5283 25.3036
2365 1 32.2193 21.6228 29.2531
2366 1 -2.81117 15.5236 7.11268
2367 1 36.988 6.859 26.9793
2368 1 20.1743 35.1589 2.00606
2369 1 35.3475 2.21783 18.8176
2370 1 36.4004 32.7962 19.7876
2371 1 -0.225342 25.8833 9.2401
2372 1 19.8072 29.2074 9.7904
2373 1 14.6878 -2.75772 15.5094
2374 1 27.8692 26.6253 21.854
2375 1 37.7014 16.5048 17.6414
2376 1 14.822 4.17214 37.7996
2377 1 23.2017 6.62546 25.2435
2378 1 6.43098 -0.325404 18.6558
2379 1 4.37787 16.9792 34.5243
2380 1 26.0407 20.9173 4.25918
2381 1 16.4032 2.19775 0.7411
2382 1 27.9876 0.493561 19.1825
2383 1 24.6497 6.41136 25.2797
2384 1 15.3312 11.554 30.191
2385 1 5.74221 37.3322 14.1926
2386 1 13.3885 2.71187 18.6446
2387 1 10.6107 7.69134 18.917
2388 1 25.4266 -0.146003 5.08758
2389 1 37.1175 27.612 5.65895
2390 1 -3.05111 27.0496 34.643
2391 1 30.359 22.6767 33.9818
2392 1 33.8686 2.22018 23.6189
2393 1 36.6304 21.0298 -2.07429
2394 1 9.26456 12.0644 1.09435
2395 1 26.882 30.2382 23.2431
2396 1 18.2484 31.1184 5.31154
2397 1 35.5005 10.2393 21.5126
2398 1 10.094 9.16029 8.07528
2399 1 14.6086 4.50789 26.8064
2400 1 28.8325 38.3397 21.512
2401 1 17.3352 21.7934 35.0042
2402 1 1.15212 14.0481 25.2877
2403 1 37.4923 3.81735 5.07138
2404 1 35.5525 -0.184858 6.75322
2405 1 1.23112 33.6694 23.1956
2406 1 -1.12807 19.8889 29.2299
2407 1 30.5821 6.93174 10.1702
2408 1 26.1307 28.9046 15.4196
2409 1 9.70044 17.4247 8.60085
2410 1 35.4209 3.07663 9.63497
2411 1 37.4514 26.7287 32.461
2412 1 25.6043 -2.80598 0.0490303
2413 1 35.317 2.79796 26.7253
2414 1 5.57107 31.5377 12.4224
2415 1 8.74407 9.79354 -1.50321
2416 1 19.3043 19.1016 18.4003
2417 1 32.3038 13.3804 0.19377
2418 1 30.1813 27.7492 -0.175379
2419 1 19.9734 26.4944 33.0284
2420 1 -2.96677 35.9377 11.0086
2421 1 20.2032 5.78482 8.90347
2422 1 28.1746 2.40514 0.67679
2423 1 10.8017 35.7569 21.3124
2424 1 19.0795 18.6869 21.4374
2425 1 26.631 29.2266 5.72507
2426 1 23.9401 36.1576 17.23
2427 1 6.42744 9.02804 1.86813
2428 1 10.8841 -1.42546 13.3916
2429 1 10.189 28.7888 20.0718
2430 1 7.35826 24.4719 9.98527
2431 1 3.64962 32.1917 20.4049
2432 1 33.4012 34.5142 24.3072
2433 1 25.3776 20.7311 12.8698
2434 1 32.9902 16.3397 17.8641
2435 1 17.7966 25.6947 -0.137927
2436 1 25.508 8.55397 15.0162
2437 1 28.1876 30.5591 36.1942
2438 1 15.0975 8.65246 13.2901
2439 1 37.2553 21.076 -0.75537
2440 1 -2.88787 2.92293 28.6726
2441 1 23.2422 -1.31695 0.495673
2442 1 30.9537 10.3409 25.1617
2443 1 38.0163 27.4042 24.7739
2444 1 10.8167 12.8486 10.4036
2445 1 20.2141 32.7313 9.12646
2446 1 33.5161 29.0483 0.0193205
2447 1 5.7581 24.4367 17.5402
2448 1 7.55526 11.9483 30.9325
2449 1 12.619 8.88551 -1.66449
2450 1 13.4729 29.1009 30.028
2451 1 8.74046 6.33748 -0.106217
2452 1 18.2427 28.5404 22.8129
2453 1 -0.629955 31.2644 -3.10184
2454 1 34.9643 13.9051 19.1596
2455 1 8.63952 24.5531 12.5293
2456 1 8.80023 37.8307 22.0179
2457 1 14.6655 1.40213 4.15574
2458 1 -0.424539 8.02123 34.8357
2459 1 18.0185 -2.05117 -1.53689
2460 1 11.9142 27.7608 28.0714
2461 1 2.19614 37.966 28.0689
2462 1 21.4643 13.6013 26.991
2463 1 17.2532 21.4276 27.5723
2464 1 23.4918 15.7219 12.9891
2465 1 -0.478677 11.9393 17.893
2466 1 12.3799 7.34364 4.78212
2467 1 30.2497 25.3704 20.0081
2468 1 6.68587 0.718886 0.133187
2469 1 -2.57193 30.9872 27.8746
2470 1 33.3923 25.7971 3.01302
2471 1 3.57331 28.5095 14.7977
2472 1 26.1469 5.27919 -3.11476
2473 1 2.02728 9.44328 34.3942
2474 1 20.7613 38.1307 32.1472
2475 1 35.692 25.7383 36.3612
2476 1 29.3781 1.98907 10.5272
2477 1 23.8823 12.2284 31.064
2478 1 11.054 17.164 7.13509
2479 1 19.3163 27.3284 17.8666
2480 1 14.9618 11.9401 21.141
2481 1 27.8407 25.4063 13.7582
2482 1 5.74969 9.6452 32.2076
2483 1 21.4952 0.40977 -1.6288
2484 1 14.8554 12.7383 19.3058
2485 1 30.9084 -2.60537 34.4639
2486 1 26.0583 12.5849 18.9911
2487 1 29.1963 37.6008 37.0208
2488 1 23.6596 37.2341 -1.24077
2489 1 26.8646 8.86121 32.0257
2490 1 7.0509 37.7626 29.574
2491 1 6.63006 19.6421 2.827
2492 1 0.549766 1.60744 3.52942
2493 1 16.2972 30.7691 15.0316
2494 1 0.0866618 25.9636 1.75779
2495 1 -3.04189 24.425 28.139
2496 1 21.0643 -2.58502 12.887
2497 1 13.0799 8.11112 32.3113
2498 1 23.9068 26.0406 1.1552
2499 1 33.2053 13.806 34.877
2500 1 18.0991 6.03806 18.0058
2501 1 12.7769 4.49352 3.52787
2502 1 21.8497 10.5649 11.9092
2503 1 18.0168 -0.647453 28.8461
2504 1 -0.771467 -2.88945 10.1856
2505 1 10.286 4.76023 5.18433
2506 1 13.5837 4.19505 20.0066
2507 1 21.6649 33.1596 5.46924
2508 1 2.20938 24.5518 13.5394
2509 1 38.1742 36.6119 9.21742
2510 1 9.17658 3.58356 30.909
2511 1 30.6092 23.4952 -1.84783
2512 1 37.0024 36.0598 24.6731
2513 1 11.7978 29.0109 10.4869
2514 1 19.5548 14.3506 22.258
2515 1 -1.75971 28.328 10.3018
2516 1 8.27806 -2.02105 14.5181
2517 1 9.81944 24.022 32.8194
2518 1 5.40188 30.9677 23.5033
2519 1 9.5945 -0.780049 11.3899
2520 1 8.79213 27.5929 7.61981
2521 1 36.6046 24.6596 11.8236
2522 1 0.577805 -0.855009 19.5545
2523 1 35.3385 8.7809 38.2337
2524 1 35.0012 8.7175 -0.179199
2525 1 32.2631 10.9934 32.6042
2526 1 15.4662 31.5099 32.1796
2527 1 37.8719 5.27644 -2.64956
2528 1 -0.525261 10.8656 35.4794
2529 1 32.7184 21.3586 33.0223
2530 1 36.147 -2.86436 18.1663
2531 1 18.2085 13.3213 37.0964
2532 1 11.6261 0.662381 23.2745
2533 1 4.63957 17.508 12.7652
2534 1 38.405 32.751 28.2839
2535 1 9.11304 29.9331 29.4357
2536 1 21.5911 32.0356 0.701996
2537 1 -1.84976 0.193684 14.9543
2538 1 33.9972 20.0676 -1.4985
2539 1 22.2284 26.8069 1.97157
2540 1 19.4234 -0.672664 23.0587
2541 1 37.0658 30.5117 1.29339
2542 1 20.2613 28.1806 35.7577
2543 1 27.5843 7.55813 30.6743
2544 1 26.6585 27.0879 28.1546
2545 1 38.3865 25.153 29.192
2546 1 30.0102 14.6745 32.6874
2547 1 29.139 37.9486 29.9737
2548 1 33.3987 23.8421 23.0268
2549 1 36.9452 27.1989 10.169
2550 1 29.0512 26.1185 -0.6066
2551 1 27.5344 35.5861 20.3533
2552 1 26.38 17.8853 20.4763
2553 1 18.1815 -2.96236 38.5458
2554 1 31.7571 37.238 8.2878
2555 1 31.0799 13.9618 -0.00913415
2556 1 19.8552 13.6971 16.883
2557 1 15.4651 0.654672 10.6974
2558 1 3.39542 25.9066 17.3484
2559 1 34.3755 35.5644 20.6454
2560 1 -1.54713 13.2896 -0.990362
2561 1 5.14234 1.93999 21.9746
2562 1 0.844047 21.1351 1.28311
2563 1 26.423 -1.59961 10.9854
2564 1 18.8098 24.4021 17.6782
2565 1 13.3662 4.92807 -2.87237
2566 1 12.2568 23.2331 1.26194
2567 1 16.3993 32.2175 10.3915
2568 1 19.1788 19.848 20.7333
2569 1 15.4205 5.96587 -2.06622
2570 1 12.267 25.0571 35.4953
2571 1 24.3167 34.1996 35.3608
2572 1 20.6528 37.8517 14.232
2573 1 6.65312 11.4157 31.8461
2574 1 37.6556 25.5199 36.784
2575 1 27.1108 37.5018 34.1457
2576 1 19.9366 -0.939656 28.3154
2577 1 0.942312 1.72494 19.6488
2578 1 37.7241 28.3838 23.0544
2579 1 37.183 22.7969 7.14015
2580 1 30.6113 18.4703 22.772
2581 1 34.9551 38.7171 31.453
2582 1 19.5513 21.2053 11.8589
2583 1 35.0329 -0.462384 33.0694
2584 1 16.985 0.0445005 23.6138
2585 1 8.79519 -0.110485 16.9514
2586 1 18.361 13.0331 6.88645
2587 1 27.1108 5.3248 2.81233
2588 1 14.6315 14.9508 36.8128
2589 1 19.2773 14.8486 3.12755
2590 1 21.0597 2.7148 4.18068
2591 1 -1.49802 2.27607 18.4501
2592 1 5.95894 28.1104 17.3485
2593 1 26.3724 0.439543 8.01736
2594 1 25.223 14.7882 -1.38188
2595 1 37.4688 18.899 12.9462
2596 1 33.0205 0.765198 -1.53028
2597 1 16.0849 26.9768 19.7583
2598 1 10.4554 13.0838 17.8844
2599 1 -2.91921 28.1955 0.521649
2600 1 2.8375 14.3751 22.3772
2601 1 27.9359 21.8029 26.8035
2602 1 3.12668 32.2616 -0.86846
2603 1 5.8698 29.8506 29.9864
2604 1 21.9071 4.72619 37.3294
2605 1 20.125 31.7141 17.2012
2606 1 36.5835 4.4018 28.092
2607 1 33.5273 10.5295 21.6483
2608 1 14.4422 7.0718 7.19189
2609 1 12.3208 4.58346 30.6625
2610 1 11.1381 5.90227 20.6334
2611 1 19.687 5.62393 30.7533
2612 1 22.8273 31.765 27.3626
2613 1 28.7993 17.6198 29.2282
2614 1 13.549 -2.64106 1.26426
2615 1 11.3361 17.5315 25.1513
2616 1 36.4486 38.2323 7.12334
2617 1 18.3139 12.5232 8.17454
2618 1 15.4962 33.652 28.3695
2619 1 0.762642 34.5682 10.8111
2620 1 37.1773 29.3545 36.0555
2621 1 18.738 33.0545 5.35154
2622 1 22.3853 19.0989 -0.564427
2623 1 31.824 30.4785 35.0198
2624 1 1.39606 -0.738248 0.833092
2625 1 5.38162 30.461 17.6393
2626 1 35.5479 21.0283 20.9718
2627 1 0.120635 20.2174 19.2681
2628 1 18.3225 29.4699 17.1179
2629 1 8.01838 -1.85513 36.8003
2630 1 25.6649 9.70033 20.3003
2631 1 29.8562 19.9921 28.1424
2632 1 38.4485 1.8217 35.1719
2633 1 2.11357 19.2634 3.48885
2634 1 13.0587 2.09301 9.97371
2635 1 32.6982 18.0621 20.9273
2636 1 38.585 20.9294 31.3916
2637 1 18.0457 33.2694 35.9442
2638 1 19.0337 23.4289 13.7483
2639 1 18.957 2.8506 21.1705
2640 1 24.9969 9.1814 0.167761
2641 1 -0.413517 8.9133 35.9669
2642 1 11.9509 32.3386 17.5094
2643 1 9.98185 30.7615 26.6803
2644 1 29.2409 32.3203 25.1265
2645 1 -1.52281 3.50208 4.55781
2646 1 18.2884 25.1926 23.6688
2647 1 3.59123 25.4999 30.7979
2648 1 0.688327 5.65355 34.5458
2649 1 10.2952 5.60175 36.0278
2650 1 16.7941 7.48366 7.33126
2651 1 8.20994 11.5084 23.118
2652 1 0.74741 37.9276 25.467
2653 1 22.811 36.9853 9.22904
2654 1 10.3982 14.4405 17.8044
2655 1 22.2834 15.9692 31.7869
2656 1 8.80318 1.87705 1.39539
2657 1 8.88973 28.7373 2.77981
2658 1 5.78753 7.83501 5.2509
2659 1 35.6008 31.1259 12.4588
2660 1 6.38995 20.7704 31.1754
2661 1 31.7033 37.6984 33.5464
2662 1 28.5944 21.9634 38.4443
2663 1 2.23167 5.14647 29.531
2664 1 2.05466 18.4141 37.6859
2665 1 14.1563 6.95346 -0.834388
2666 1 21.0023 23.5141 5.86666
2667 1 28.6676 15.4011 36.6743
2668 1 24.3609 8.69255 22.6129
2669 1 29.1946 11.4703 36.9116
2670 1 4.30214 17.0244 27.1808
2671 1 5.77507 28.0877 8.21691
2672 1 8.55729 1.81793 28.8136
2673 1 -1.13227 6.47238 22.662
2674 1 32.6526 20.7796 11.448
2675 1 37.3519 20.1863 21.1937
2676 1 0.443159 2.05899 -2.53573
2677 1 11.3203 24.2133 23.7646
2678 1 6.39842 17.0507 8.00927
2679 1 6.47537 22.5405 4.44047
2680 1 1.15676 38.3574 1.18086
2681 1 3.41953 21.3386 -1.24606
2682 1 5.87151 16.6032 20.6418
2683 1 22.6449 29.9309 20.5719
2684 1 32.8415 3.95796 29.42
2685 1 -2.44882 5.92081 24.7262
2686 1 25.9375 38.3435 14.2489
2687 1 7.88361 -1.82758 16.4836
2688 1 36.8413 9.28626 7.18908
2689 1 23.18 36.8361 30.5029
2690 1 34.7856 1.84384 35.4494
2691 1 10.9576 12.4237 6.28807
2692 1 11.0143 7.09973 11.8231
2693 1 2.0918 13.3954 15.8394
2694 1 7.69554 17.0662 36.7545
2695 1 15.461 4.4773 19.3864
2696 1 6.7967 10.8142 14.9988
2697 1 6.04866 19.7636 19.7159
2698 1 30.2359 8.13442 4.92807
2699 1 8.88448 25.4103 24.5504
2700 1 1.06228 28.8243 -2.22414
2701 1 31.8501 37.1393 14.8139
2702 1 13.1045 18.4582 33.3224
2703 1 28.9781 5.5323 16.3094
2704 1 0.759043 23.4626 29.6405
2705 1 30.5111 1.85095 2.27996
2706 1 29.5584 22.8647 18.6116
2707 1 32.5943 19.4732 8.95985
2708 1 12.1616 35.0022 2.64223
2709 1 1.9388 28.1374 18.2463
2710 1 16.6382 2.35425 29.9168
2711 1 22.9478 5.50301 30.9073
2712 1 38.1754 -0.0855701 15.748
2713 1 16.8811 28.9207 6.83543
2714 1 17.5375 2.66534 0.334631
2715 1 18.4733 -0.0648941 38.5305
2716 1 24.7789 21.6406 34.6084
2717 1 -2.59898 4.17962 25.7113
2718 1 3.94266 35.8086 37.4651
2719 1 37.0331 35.5549 12.9871
2720 1 24.7021 23.9667 22.7535
2721 1 34.6417 25.9049 -0.501526
2722 1 29.6311 1.89176 30.2449
2723 1 33.5118 22.5856 14.0199
2724 1 -0.5495 10.458 27.1611
2725 1 14.5282 28.2247 17.0112
2726 1 12.9735 16.1444 12.5974
2727 1 22.6419 33.3287 24.544
2728 1 32.0245 24.91 32.0747
2729 1 12.1051 26.3502 3.01993
2730 1 0.69243 35.3917 -1.55649
2731 1 -1.8568 36.8011 25.1227
2732 1 17.0153 17.8906 0.116219
2733 1 26.0195 15.3102 24.1708
2734 1 7.37986 36.865 25.5325
2735 1 10.6894 29.6107 33.899
2736 1 21.1329 14.2861 33.7759
2737 1 25.5284 35.5798 -2.44185
2738 1 13.3045 1.06217 21.0288
2739 1 14.4711 23.2036 2.37017
2740 1 37.6935 24.5665 25.5054
2741 1 10.5194 38.5643 0.506493
2742 1 32.3445 27.1299 6.29188
2743 1 15.8318 3.28846 2.32964
2744 1 23.7742 28.4515 10.9836
2745 1 15.1328 31.2206 12.7703
2746 1 20.4382 28.0785 0.714953
2747 1 10.5191 28.6821 10.8979
2748 1 18.1437 0.433246 17.1944
2749 1 13.5163 33.5919 -2.71412
2750 1 34.8813 13.9895 23.3129
2751 1 2.09066 16.91 5.65356
2752 1 -0.566766 13.0774 24.97
2753 1 37.1189 25.9886 18.112
2754 1 23.9595 31.8752 10.3164
2755 1 8.63071 24.5498 10.5209
2756 1 -0.926475 -1.68175 29.7439
2757 1 6.57641 1.92902 31.4992
2758 1 20.5933 38.1347 25.5099
2759 1 36.924 30.7524 -0.696633
2760 1 17.4888 -2.98716 16.1021
2761 1 13.599 7.50426 36.338
2762 1 1.1464 25.117 14.3025
2763 1 37.4408 22.8329 0.219295
2764 1 34.3471 18.5554 21.9698
2765 1 7.88463 8.73305 19.3509
2766 1 15.8469 17.7357 11.2786
2767 1 35.1384 28.5405 34.0763
2768 1 37.9724 24.2691 30.9695
2769 1 6.14575 -1.11417 6.72468
2770 1 9.58876 4.58518 -2.08258
2771 1 18.4778 33.8513 -2.03492
2772 1 29.0513 2.60524 4.56398
2773 1 37.1697 -0.618453 25.4219
2774 1 10.8461 36.5153 16.7807
2775 1 12.1213 10.5285 33.7851
2776 1 20.3101 7.3983 23.4894
2777 1 12.8009 35.7403 28.2614
2778 1 8.87717 14.5795 27.6606
2779 1 5.14815 5.83359 29.0037
2780 1 24.7105 16.1243 1.30119
2781 1 2.71181 -2.31605 5.67749
2782 1 18.1335 3.6185 13.6609
2783 1 32.0999 3.83084 3.32414
2784 1 30.7983 13.1372 30.17
2785 1 15.8243 20.8742 7.68821
2786 1 15.5909 6.5677 23.2196
2787 1 26.195 33.8857 27.5743
2788 1 -1.24496 14.792 10.8154
2789 1 -0.194854 4.09395 25.9247
2790 1 13.3218 30.542 22.7703
2791 1 11.3549 9.60632 14.4373
2792 1 0.57261 21.2378 32.7221
2793 1 14.8776 13.8402 26.9247
2794 1 15.2556 17.9335 26.4103
2795 1 26.1735 1.26958 28.3029
2796 1 25.5776 11.4764 14.6053
2797 1 6.72441 38.224 -0.773903
2798 1 11.9139 27.7124 38.7323
2799 1 23.7398 2.41964 -1.42003
2800 1 15.07 24.123 6.10967
2801 1 22.6712 35.5578 4.23135
2802 1 0.152432 37.6853 6.66086
2803 1 -2.30651 33.1433 15.5929
2804 1 35.8016 5.84408 23.962
2805 1 28.6498 6.62485 2.80339
2806 1 3.33415 8.00746 -2.26564
2807 1 20.8323 -0.753989 10.7062
2808 1 23.7324 -1.84739 15.6643
2809 1 33.8341 12.451 12.2817
2810 1 16.4444 33.4219 30.9593
2811 1 20.3145 2.20461 33.3848
2812 1 1.20598 25.8605 9.37159
2813 1 9.85202 12.1946 30.0145
2814 1 16.0651 22.159 4.48562
2815 1 33.8661 38.0352 32.1295
2816 1 29.8061 -1.13754 10.239
2817 1 -2.52611 14.0428 29.1072
2818 1 22.8593 16.0263 20.81
2819 1 30.9743 12.5271 20.5991
2820 1 29.4432 19.4103 33.0875
2821 1 24.3741 32.2324 24.4116
2822 1 22.2229 18.4804 10.3387
2823 1 2.15822 10.1141 36.3016
2824 1 35.115 13.3851 8.06772
2825 1 -0.422886 0.633532 33.076
2826 1 28.6397 6.12853 -2.04267
2827 1 26.9798 36.8303 7.70467
2828 1 14.0641 22.9414 37.7654
2829 1 16.1552 5.60767 24.3037
2830 1 0.495368 33.6241 13.5105
2831 1 34.1533 3.17175 17.4696
2832 1 13.1877 9.97795 10.0594
2833 1 -0.413969 37.201 12.3773
2834 1 21.2532 15.1904 34.7903
2835 1 34.9341 28.695 13.44
2836 1 3.30029 1.40191 23.8942
2837 1 -2.81931 20.7266 38.1498
2838 1 13.9376 20.282 7.3466
2839 1 0.787259 30.7685 7.37199
2840 1 24.365 10.7185 -0.949944
2841 1 15.6719 -2.20934 3.38451
2842 1 24.95 4.12771 29.4364
2843 1 32.5742 -1.60552 10.6176
2844 1 6.74624 10.7128 6.34834
2845 1 21.4352 12.4658 25.3322
2846 1 33.5115 -2.28993 21.9958
2847 1 8.21246 30.9431 -2.83177
2848 1 30.5847 36.338 32.5301
2849 1 26.0046 22.0165 37.4007
2850 1 26.5914 -1.07015 26.6446
2851 1 20.6545 14.5147 -1.42049
2852 1 29.8029 25.7943 4.19966
2853 1 2.87257 36.8927 33.6737
2854 1 38.3784 16.4008 25.9561
2855 1 7.15592 24.0496 35.0548
2856 1 -0.721088 -0.348627 17.0982
2857 1 37.3058 13.4909 3.28334
2858 1 25.2306 26.3958 0.951135
2859 1 3.08651 20.0503 12.3219
2860 1 38.421 21.6194 32.5206
2861 1 26.7805 30.5515 17.2101
2862 1 23.1878 21.0226 37.9951
2863 1 25.9538 14.0945 22.5371
2864 1 -2.48137 -3.02478 -2.88667
2865 1 18.8318 -2.09938 35.5932
2866 1 15.6789 4.99528 16.3616
2867 1 27.933 5.61437 0.547545
2868 1 29.354 26.5524 34.7496
2869 1 27.7053 27.0095 7.33586
2870 1 27.1476 6.38212 7.95786
2871 1 26.6016 34.1397 38.5284
2872 1 1.55968 28.685 14.9344
2873 1 21.3271 10.261 17.4443
2874 1 36.635 33.3711 9.36509
2875 1 -2.01514 26.5352 23.1653
2876 1 26.781 25.2431 36.4697
2877 1 21.7995 23.9872 20.7453
2878 1 14.923 24.7176 21.8582
2879 1 9.10696 26.5234 21.2632
2880 1 18.8423 1.76265 2.85058
2881 1 0.850486 19.7326 29.2118
2882 1 10.2393 18.3739 30.6889
2883 1 37.8552 20.2842 3.21584
2884 1 -1.88598 25.5383 3.77841
2885 1 28.4758 7.13312 4.73925
2886 1 -0.415696 16.5546 15.7534
2887 1 30.6496 -2.93615 3.8048
2888 1 18.6598 27.922 33.5018
2889 1 3.66892 19.9182 23.4325
2890 1 4.02698 25.6769 15.9394
2891 1 5.11686 34.1397 24.4879
2892 1 21.3365 1.73325 37.3757
2893 1 1.74368 7.62686 5.44814
2894 1 32.7906 31.9605 9.72563
2895 1 22.91 7.90987 33.7324
2896 1 25.831 12.6057 4.55059
2897 1 13.6268 21.9117 17.8594
2898 1 3.0043 29.7451 30.4724
2899 1 14.449 1.48325 36.6154
2900 1 -3.03079 15.1458 34.4967
2901 1 32.8844 24.0366 11.2196
2902 1 18.0636 38.0501 22.3838
2903 1 13.0995 20.9488 3.24608
2904 1 35.5282 -2.98581 5.46754
2905 1 26.9337 23.2443 11.5101
2906 1 0.400759 32.2779 4.14028
2907 1 22.7136 5.77931 26.9968
2908 1 26.0514 23.4331 14.2248
2909 1 19.9428 20.0669 34.5458
2910 1 27.2629 18.4165 7.82444
2911 1 9.967 35.0391 34.3853
2912 1 21.4508 25.3574 18.1955
2913 1 15.3543 17.89 23.4939
2914 1 27.9202 3.65919 27.6864
2915 1 5.62928 3.22102 -0.864341
2916 1 38.4856 7.16746 16.9899
2917 1 23.2997 30.2319 14.9889
2918 1 14.6182 26.8737 28.5399
2919 1 14.5325 23.4164 16.8873
2920 1 23.1924 14.4319 21.9904
2921 1 2.43018 18.1196 7.27043
2922 1 25.978 19.9652 7.523
2923 1 31.5184 36.6905 5.42048
2924 1 29.3603 30.7362 18.2576
2925 1 6.88965 10.7531 35.6238
2926 1 13.54 6.57455 2.17582
2927 1 0.731228 29.615 15.3542
2928 1 35.5274 5.44057 7.95362
2929 1 13.054 33.0316 33.3445
2930 1 33.3106 12.0254 31.2393
2931 1 13.7304 22.1308 22.6938
2932 1 -1.11758 14.8999 9.48381
2933 1 1.94516 5.09821 4.18338
2934 1 12.8267 12.7855 27.528
2935 1 0.764066 19.8865 11.4972
2936 1 9.46529 33.2134 10.0405
2937 1 11.4683 9.12647 35.0923
2938 1 14.6108 17.6277 29.8695
2939 1 29.1785 -0.103488 16.0762
2940 1 11.8548 14.2931 26.6282
2941 1 24.3199 23.0282 1.26761
2942 1 20.3023 22.1686 26.3806
2943 1 1.59914 19.978 -0.20742
2944 1 22.7361 30.745 18.7036
2945 1 33.8963 4.11554 15.6824
2946 1 9.34599 10.155 25.0999
2947 1 7.92446 -1.64537 2.11832
2948 1 13.3843 3.97047 21.3933
2949 1 21.874 18.7733 5.86812
2950 1 3.63497 27.3823 -1.14354
2951 1 11.2832 9.2305 -1.07671
2952 1 38.6361 30.3619 37.0286
2953 1 38.2379 -2.48244 10.8021
2954 1 20.2239 6.67776 19.8438
2955 1 1.55865 12.3942 10.1609
2956 1 13.1254 26.7135 1.30698
2957 1 31.6555 28.9702 32.4464
2958 1 29.7996 10.0589 22.4723
2959 1 21.5147 28.9797 17.1913
2960 1 30.6279 -1.55632 31.6461
2961 1 26.1322 8.19464 16.8731
2962 1 8.76336 -1.93524 34.9075
2963 1 5.09099 38.5359 14.2693
2964 1 25.317 7.63392 32.3871
2965 1 35.5166 15.2819 27.1123
2966 1 22.9026 9.89807 27.3927
2967 1 33.7622 10.9804 23.9292
2968 1 30.3773 37.7329 16.0253
2969 1 18.2605 16.5525 14.8079
2970 1 19.7659 3.09028 -3.10728
2971 1 21.3919 1.16768 21.8643
2972 1 -1.92314 35.4727 28.6323
2973 1 4.85306 26.4698 20.0105
2974 1 9.17116 35.3822 7.37948
2975 1 12.6869 -2.24188 13.0434
2976 1 16.5559 13.2343 9.55065
2977 1 38.5229 -2.41631 -0.515713
2978 1 26.6253 32.5096 5.92973
2979 1 18.0829 32.7156 31.9216
2980 1 26.1652 0.449805 20.0267
2981 1 2.46698 25.1087 -0.784081
2982 1 12.7121 2.29496 23.6476
2983 1 18.9247 4.80934 35.5457
2984 1 33.0318 30.1422 6.31181
2985 1 31.2888 34.0016 2.22499
2986 1 8.18196 9.08845 7.41793
2987 1 3.7017 32.3899 18.3901
2988 1 23.884 13.462 24.4618
2989 1 22.5933 28.1362 9.37416
2990 1 30.5129 0.174804 -2.66291
2991 1 29.4488 6.48931 32.6649
2992 1 0.486706 31.9538 33.5938
2993 1 34.9561 20.4512 28.9623
2994 1 31.516 34.9624 37.1845
2995 1 27.0125 31.5633 30.2408
2996 1 -0.499792 31.9171 13.8464
2997 1 11.601 32.9184 22.6459
2998 1 28.472 -2.14846 0.826035
2999 1 7.97803 2.28884 7.14091
3000 1 4.73717 24.6774 7.12838
3001 1 14.79 8.01939 24.3514
3002 1 29.8927 20.7555 -1.44303
3003 1 21.1758 5.22574 11.9004
3004 1 12.2917 -1.28328 35.5822
3005 1 13.7537 25.3526 23.3553
3006 1 7.36423 26.5185 5.19241
3007 1 21.1426 9.97241 19.4431
3008 1 17.006 23.8213 -2.38475
3009 1 13.3773 34.3908 -1.579
3010 1 8.50248 14.7094 2.10737
3011 1 35.279 15.3027 10.1656
3012 1 37.0933 21.6245 27.1663
3013 1 3.43008 23.3974 26.197
3014 1 26.0129 6.23943 17.3829
3015 1 15.7514 12.8271 23.0673
3016 1 3.32885 6.70894 24.0254
3017 1 21.1899 21.6255 32.5197
3018 1 32.8299 2.95267 -2.83011
3019 1 21.9668 27.7019 37.9064
3020 1 32.2486 33.0447 23.5022
3021 1 20.4657 9.445 10.9616
3022 1 38.052 16.3507 27.8569
3023 1 17.1131 13.24 29.1924
3024 1 12.9029 19.1508 36.1869
3025 1 8.47854 38.1745 16.7869
3026 1 24.8733 3.62409 36.0424
3027 1 9.51352 13.2974 36.9433
3028 1 -2.4374 19.0059 -2.0502
3029 1 30.3671 23.1618 26.1136
3030 1 -1.47972 22.2447 3.77308
3031 1 23.7103 36.4957 15.2595
3032 1 21.3718 -1.99547 20.3562
3033 1 25.0843 35.4221 11.9819
3034 1 38.2589 38.1277 4.35653
3035 1 -0.548142 8.77743 -1.85012
3036 1 -3.0704 33.0877 30.1971
3037 1 33.8517 28.5646 23.9697
3038 1 21.8228 8.13177 30.9638
3039 1 14.1138 37.4331 22.2585
3040 1 15.3241 29.3488 5.6494
3041 1 30.3138 -0.530317 6.77962
3042 1 8.29873 27.4489 2.18137
3043 1 2.75117 9.2231 32.5494
3044 1 19.3349 26.2321 4.49192
3045 1 14.8151 19.1324 35.5186
3046 1 36.5537 7.30436 22.0693
3047 1 34.8875 8.09146 3.15537
3048 1 30.5684 14.9254 -1.75036
3049 1 37.0248 1.38413 37.4345
3050 1 14.274 34.9518 24.1224
3051 1 24.8694 15.4484 3.18279
3052 1 31.6889 29.3484 2.77269
3053 1 11.3756 21.7558 10.0525
3054 1 4.40552 4.82233 15.5907
3055 1 35.0168 4.39768 36.8624
3056 1 27.4929 22.1433 6.46322
3057 1 24.4203 9.88149 21.0188
3058 1 8.16429 17.5061 35.5226
3059 1 38.2166 7.07349 -1.82468
3060 1 2.79212 33.4618 -1.06578
3061 1 30.932 37.5996 17.2459
3062 1 31.792 18.7947 26.3037
3063 1 34.9595 1.89447 12.258
3064 1 35.1609 12.1815 28.763
3065 1 -0.618627 4.62968 4.58805
3066 1 17.6684 30.5515 16.5122
3067 1 11.9651 32.4681 38.5461
3068 1 8.26211 19.8076 37.1546
3069 1 -2.48337 8.33372 12.8194
3070 1 26.0977 37.8576 16.2069
3071 1 11.6028 20.7773 15.4446
3072 1 4.77683 30.1201 -0.976055
3073 1 -1.06866 16.2567 0.932329
3074 1 -2.37791 -2.09018 27.2771
3075 1 13.8862 17.6719 11.6662
3076 1 7.11983 35.7231 20.7515
3077 1 5.07841 24.031 22.8225
3078 1 21.8245 33.7148 -0.281912
3079 1 25.8593 21.3939 15.8221
3080 1 3.33172 6.08112 30.9406
3081 1 32.3708 12.9688 9.51781
3082 1 3.5435 31.7919 34.0116
3083 1 13.2646 26.2933 31.5623
3084 1 7.43153 31.6833 14.3209
3085 1 28.887 22.4763 13.0511
3086 1 17.5955 11.7358 19.5283
3087 1 3.62266 -1.72899 27.3294
3088 1 13.2581 4.13088 12.0357
3089 1 13.5436 5.0242 5.90334
3090 1 8.76919 14.3942 -1.65724
3091 1 3.03533 6.81883 16.6393
3092 1 9.28284 -0.964516 -1.53007
3093 1 5.37586 -2.09598 22.8664
3094 1 -1.36984 24.5609 4.64391
3095 1 21.0301 7.08693 32.4622
3096 1 0.887022 7.54176 18.5963
3097 1 8.93618 30.2085 16.1672
3098 1 32.5488 15.4586 16.0688
3099 1 19.6605 14.8582 1.75175
3100 1 21.0077 30.9083 26.9989
3101 1 8.42297 34.6708 38.3337
3102 1 38.4877 2.34538 36.4073
3103 1 26.4391 2.32039 -3.1254
3104 1 31.8467 29.3079 16.2812
3105 1 33.5036 2.16378 13.6139
3106 1 32.6879 27.364 1.9222
3107 1 10.1686 4.50905 15.9841
3108 1 13.0439 36.3328 24.9387
3109 1 22.5135 8.7077 34.9036
3110 1 27.598 6.36431 33.3682
3111 1 24.7132 1.92741 30.8669
3112 1 12.3671 25.8763 5.56363
3113 1 29.6784 33.7394 18.7196
3114 1 18.5708 11.012 16.6825
3115 1 13.1925 35.2335 34.6813
3116 1 8.42417 20.7122 10.2608
3117 1 20.2647 -1.44605 18.765
3118 1 8.0827 33.338 3.33326
3119 1 14.0398 32.6974 34.3304
3120 1 18.2745 20.0137 -1.11407
3121 1 20.17 32.0861 0.958556
3122 1 32.2539 36.9554 22.6688
3123 1 23.7812 23.7252 20.9885
3124 1 -1.46705 31.059 10.7603
3125 1 3.04498 23.2272 20.6836
3126 1 25.1199 3.22934 9.27755
3127 1 13.6652 9.80848 14.0578
3128 1 21.9314 36.0079 21.012
3129 1 4.33433 20.3532 9.58004
3130 1 3.80636 3.48925 33.2301
3131 1 28.5559 13.2554 24.2311
3132 1 37.3388 35.1461 14.2526
3133 1 9.05312 32.7231 38.6717
3134 1 34.7469 0.202052 21.704
3135 1 28.0529 31.7205 13.285
3136 1 -2.66671 26.4077 13.5482
3137 1 17.0998 5.64204 2.23413
3138 1 7.14924 6.9041 19.7989
3139 1 1.78229 12.9795 12.5819
3140 1 16.2181 23.0753 27.2254
3141 1 21.2716 31.6512 30.6349
3142 1 -2.78254 13.1439 34.5293
3143 1 25.5617 13.7794 37.6039
3144 1 14.3131 28.3025 15.5938
3145 1 13.0426 9.04895 8.81732
3146 1 -0.518346 -0.836013 32.9752
3147 1 19.6212 11.7326 6.00999
3148 1 36.1599 13.0604 32.7224
3149 1 28.1807 23.3731 7.92578
3150 1 12.7429 38.6998 35.2063
3151 1 16.5096 13.9894 22.6219
3152 1 28.7897 7.34056 25.5043
3153 1 18.4162 8.24978 29.7649
3154 1 -2.18428 27.8178 23.0102
3155 1 9.54929 7.05367 28.1436
3156 1 27.4507 31.6771 3.47482
3157 1 16.8154 24.1786 33.368
3158 1 19.0735 28.3302 19.5894
3159 1 38.1977 1.55301 6.32254
3160 1 8.06613 20.3991 5.48669
3161 1 14.5085 24.081 14.1566
3162 1 30.0141 25.3542 34.5849
3163 1 29.0909 7.31494 28.4039
3164 1 22.2993 13.768 3.33894
3165 1 37.0629 12.8352 21.2161
3166 1 14.4251 9.59349 32.2626
3167 1 20.7244 38.3706 3.0415
3168 1 4.17207 16.4692 22.8904
3169 1 27.2252 11.8436 32.8772
3170 1 0.426588 33.9392 16.4177
3171 1 29.2663 29.0442 19.3603
3172 1 20.9667 30.4825 19.5916
3173 1 38.1193 4.66594 9.10678
3174 1 3.11711 21.8594 18.4005
3175 1 10.095 1.97295 21.2311
3176 1 23.5037 14.4616 19.7268
3177 1 4.97669 36.0347 15.5489
3178 1 35.8636 14.3994 2.2617
3179 1 10.9992 6.97736 9.81111
3180 1 36.5243 -0.59566 28.231
3181 1 38.5523 28.9661 7.8086
3182 1 -2.6646 3.85096 8.94678
3183 1 25.1919 35.4622 29.3485
3184 1 9.8877 36.8277 -2.9581
3185 1 2.91382 38.3453 4.13776
3186 1 24.5178 24.6479 28.9235
3187 1 30.4427 19.0875 19.5593
3188 1 12.5498 26.3203 13.3448
3189 1 20.863 -0.0289654 30.5799
3190 1 15.9293 23.9606 20.3116
3191 1 7.52887 33.1476 37.4215
3192 1 12.6678 32.1042 35.6849
3193 1 30.5837 0.803227 12.4627
3194 1 34.5883 17.5365 1.34919
3195 1 1.9595 0.13198 7.44474
3196 1 27.6505 4.50318 7.53535
3197 1 37.8222 29.5581 13.3195
3198 1 1.13276 18.6385 7.5
3199 1 -2.94134 -2.0465 31.4767
3200 1 -2.75232 -2.48736 0.697229
3201 1 13.3128 8.55524 20.0931
3202 1 18.007 33.193 16.5224
3203 1 34.3581 0.486127 18.6916
3204 1 22.4304 33.9993 21.025
3205 1 20.2186 -0.786912 36.1277
3206 1 3.24749 10.6496 29.7237
3207 1 35.5282 37.6299 34.1622
3208 1 29.5853 32.9919 27.0105
3209 1 23.0208 34.4309 1.16537
3210 1 13.0222 3.13833 24.7139
3211 1 24.6862 0.0515806 30.1497
3212 1 20.9179 29.68 3.22316
3213 1 19.2049 14.8501 21.1487
3214 1 34.3228 37.0877 33.8675
3215 1 9.27801 24.2609 0.996058
3216 1 19.0107 33.9358 37.5634
3217 1 -0.676307 19.0568 6.74003
3218 1 38.5098 5.94848 4.39652
3219 1 35.7502 37.3934 14.3515
3220 1 36.6894 10.8658 21.5015
3221 1 9.64275 12.1913 28.6022
3222 1 14.9548 18.7633 28.2607
3223 1 1.92676 10.9836 17.9025
3224 1 37.8289 37.5921 28.9624
3225 1 25.5794 0.768102 9.16494
3226 1 30.9634 -0.968721 14.2353
3227 1 5.09529 -2.62715 16.1311
3228 1 37.9134 31.5993 17.7722
3229 1 13.1877 0.163652 1.85994
3230 1 28.1252 13.0192 4.574
3231 1 12.3057 20.0482 24.078
3232 1 20.8571 6.99558 16.9199
3233 1 37.6856 7.05205 29.7326
3234 1 30.1311 15.7445 0.0508885
3235 1 3.7469 35.5048 1.96774
3236 1 36.2847 5.84465 0.0247529
3237 1 5.01556 14.6501 7.69128
3238 1 5.25303 20.0512 1.41517
3239 1 18.8584 36.4787 18.9452
3240 1 3.9297 0.601594 -2.60617
3241 1 1.08584 0.422785 -0.776109
3242 1 18.7857 33.7584 11.1051
3243 1 10.7228 36.5993 12.1409
3244 1 38.7388 36.1025 2.20124
3245 1 30.1608 25.9118 8.3055
3246 1 6.09979 22.0821 7.18355
3247 1 20.538 10.941 16.3256
3248 1 14.5017 19.1905 1.12591
3249 1 9.53667 33.5722 16.6322
3250 1 32.9181 29.5301 27.5799
3251 1 4.82585 29.2233 25.3746
3252 1 23.3683 28.3158 29.4369
3253 1 10.7819 21.4626 26.5992
3254 1 30.559 31.3512 26.328
3255 1 38.5445 6.76814 37.1345
3256 1 16.9445 18.7434 16.9406
3257 1 9.57696 25.0322 35.2559
3258 1 27.7772 32.802 11.0164
3259 1 29.5931 0.225589 24.8775
3260 1 12.2389 15.1828 36.3221
3261 1 3.59235 38.3822 -0.0726496
3262 1 27.2036 27.7209 36.1412
3263 1 35.8642 38.6775 -1.74873
3264 1 18.9308 23.2778 29.8892
3265 1 27.9668 -2.44913 19.3908
3266 1 0.4128 0.697128 28.034
3267 1 20.6724 11.8195 9.78695
3268 1 12.5831 38.0234 4.04842
3269 1 5.11802 -0.647616 31.428
3270 1 26.3799 11.6198 -2.13874
3271 1 36.4051 34.2629 8.29483
3272 1 26.4377 26.4059 30.0587
3273 1 35.6329 5.14767 -1.73668
3274 1 15.1836 10.5987 18.1843
3275 1 35.2721 10.5725 36.0565
3276 1 13.8956 31.2261 26.1733
3277 1 25.9841 16.9939 23.0825
3278 1 10.2501 19.3031 13.3983
3279 1 -1.37036 27.2236 14.8787
3280 1 23.8635 0.095774 16.169
3281 1 25.8619 18.2347 17.4712
3282 1 8.31523 5.46259 3.93862
3283 1 24.2157 8.07853 10.7306
3284 1 5.17303 4.10285 28.0022
3285 1 12.707 18.909 24.622
3286 1 11.8597 10.1363 5.72826
3287 1 3.05902 28.8203 16.7454
3288 1 19.7203 34.1291 21.8282
3289 1 28.8956 30.3643 5.85453
3290 1 4.50725 18.505 17.1114
3291 1 13.0069 6.86666 22.4524
3292 1 29.9671 14.0983 16.952
3293 1 17.8921 28.0877 6.35754
3294 1 36.4408 1.08036 0.590848
3295 1 -1.09611 16.3465 29.1404
3296 1 21.1066 26.857 28.4192
3297 1 20.4529 34.7272 8.95396
3298 1 21.1685 26.1327 30.2959
3299 1 8.53622 4.84353 38.0809
3300 1 2.30182 26.2693 -0.125345
3301 1 33.6855 37.6451 11.7906
3302 1 30.303 29.084 16.5363
3303 1 29.802 17.4274 8.23418
3304 1 30.0732 29.5646 12.7051
3305 1 37.461 -1.97698 15.5758
3306 1 23.6041 21.8543 9.6394
3307 1 29.3716 25.389 2.26236
3308 1 25.3726 37.7761 10.2193
3309 1 24.3749 24.0658 -0.432334
3310 1 21.8211 34.7601 11.4176
3311 1 25.2911 19.7635 34.0709
3312 1 20.7516 10.1666 32.95
3313 1 37.5378 22.6681 14.817
3314 1 16.4425 2.03008 11.8242
3315 1 28.1857 30.291 20.4838
3316 1 34.7915 37.4697 13.4473
3317 1 -0.404109 35.08 3.41528
3318 1 15.5132 33.8941 19.1056
3319 1 24.6131 33.5833 16.2858
3320 1 14.6986 3.74581 33.6994
3321 1 -0.884709 29.6008 1.45287
3322 1 7.5199 0.591265 22.3984
3323 1 30.196 0.562569 17.7241
3324 1 17.6474 22.0894 0.385372
3325 1 10.789 3.64144 29.6965
3326 1 14.5819 15.0963 13.1535
3327 1 27.7754 28.7258 10.9737
3328 1 10.2638 25.7182 10.8293
3329 1 20.6655 28.8964 31.5239
3330 1 13.1729 -3.07932 23.3948
3331 1 15.666 -0.248714 34.5491
3332 1 22.1286 16.2686 3.21642
3333 1 4.68982 9.09515 26.8124
3334 1 3.38666 30.1121 2.80288
3335 1 3.5664 22.848 16.7008
3336 1 18.2652 11.5025 25.6631
3337 1 -2.3046 19.4406 11.0386
3338 1 -1.6609 38.4335 16.7695
3339 1 31.5359 8.66652 32.9452
3340 1 35.6767 10.7463 17.0244
3341 1 21.5467 4.75238 23.3949
3342 1 7.63157 38.1296 9.27145
3343 1 2.91414 19.6315 -0.341065
3344 1 23.3756 26.6413 5.90805
3345 1 30.0983 13.1796 27.1661
3346 1 3.81308 18.9193 18.2454
3347 1 38.156 29.2037 32.4454
3348 1 32.5952 16.408 36.7916
3349 1 25.9337 11.9601 -0.826258
3350 1 30.4304 26.7123 29.3917
3351 1 27.2099 -2.26441 17.5472
3352 1 35.7547 23.4117 33.6952
3353 1 32.1196 29.4792 0.30409
3354 1 9.03029 23.5515 3.70104
3355 1 13.6257 14.6642 7.73774
3356 1 23.2477 27.2694 19.5783
3357 1 36.9556 26.8489 27.2866
3358 1 31.0341 -0.546928 29.251
3359 1 19.9952 16.7178 12.52
3360 1 6.58552 24.668 31.9846
3361 1 9.18898 35.8701 6.17964
3362 1 13.2868 21.4651 33.3608
3363 1 26.7887 13.7032 5.94576
3364 1 8.4786 30.2962 4.0742
3365 1 15.82 33.6937 -1.25186
3366 1 34.3548 21.9527 27.7381
3367 1 14.6194 13.4898 -2.73034
3368 1 21.3527 26.6075 19.7635
3369 1 23.1044 16.6189 25.9712
3370 1 12.7439 34.5072 20.3269
3371 1 33.8581 12.1603 3.53911
3372 1 23.9663 -0.876572 -2.7506
3373 1 35.8828 0.741647 37.2938
3374 1 19.1089 25.3362 10.9737
3375 1 23.2541 12.9262 5.48306
3376 1 12.9778 20.8622 13.0262
3377 1 4.29272 22.8728 31.3576
3378 1 3.42214 36.0769 24.0398
3379 1 13.87 6.78934 10.8584
3380 1 7.29106 8.15802 25.7583
3381 1 23.3645 21.4137 36.0206
3382 1 -0.808929 9.97544 3.78564
3383 1 20.8613 19.7669 0.581651
3384 1 15.8639 -1.58229 31.9122
3385 1 19.6617 18.7482 -1.81868
3386 1 7.55857 14.7606 13.0172
3387 1 10.386 37.3976 35.7654
3388 1 24.6479 27.5129 3.26704
3389 1 28.1318 8.2182 16.8063
3390 1 26.1747 20.931 26.3757
3391 1 -1.01165 30.017 13.3262
3392 1 29.5124 35.6098 -2.60767
3393 1 20.0018 27.6624 -1.80942
3394 1 31.4712 37.7037 25.6489
3395 1 36.108 25.4166 22.8414
3396 1 13.4427 31.925 -0.0516251
3397 1 13.8878 16.7019 21.4645
3398 1 0.423575 3.14964 2.24749
3399 1 0.222386 30.4916 30.631
3400 1 7.02394 20.6014 15.1083
3401 1 6.42112 -0.131616 13.9616
3402 1 4.27964 0.685318 26.6907
3403 1 35.6151 15.1685 19.45
3404 1 23.7868 6.60934 2.59658
3405 1 35.9313 23.3356 15.8547
3406 1 22.6471 17.7579 29.2598
3407 1 23.1001 9.93676 14.7088
3408 1 36.8932 32.8878 16.6438
3409 1 28.7629 24.316 6.23429
3410 1 5.9662 26.4712 23.1186
3411 1 26.5645 -0.624624 30.4739
3412 1 23.9694 34.3307 -2.04024
3413 1 24.9409 16.668 36.0576
3414 1 19.0861 35.0253 5.72076
3415 1 14.2752 1.96141 30.0114
3416 1 16.197 14.4667 8.01191
3417 1 12.4134 -2.34007 20.5069
3418 1 11.322 31.8606 32.1
3419 1 7.10824 12.8585 8.04673
3420 1 -2.21342 4.61496 0.916515
3421 1 -2.52874 13.8583 12.0683
3422 1 12.0037 15.0923 -1.75777
3423 1 3.45867 3.00156 21.5773
3424 1 8.35331 2.65272 5.92397
3425 1 37.1858 3.1563 38.3993
3426 1 27.5879 16.0053 34.5512
3427 1 21.7082 -2.20355 38.5038
3428 1 37.3396 36.7509 18.9719
3429 1 26.8629 9.0382 28.1303
3430 1 23.1904 11.3831 -0.872763
3431 1 24.7146 18.1001 9.26191
3432 1 30.6722 38.4658 5.7802
3433 1 1.65 37.6716 29.9643
3434 1 33.9442 17.4971 28.4291
3435 1 34.7646 16.7575 24.2088
3436 1 22.5014 31.3463 22.015
3437 1 12.7086 6.95429 -1.1722
3438 1 -2.37051 -1.61108 33.3552
3439 1 -1.27477 34.066 33.7582
3440 1 3.21893 -2.53207 26.2334
3441 1 1.5596 34.6422 29.8124
3442 1 28.2922 16.5772 11.7284
3443 1 -2.8486 -1.49894 22.6911
3444 1 36.0028 7.88884 20.9358
3445 1 20.2868 -1.13641 33.5387
3446 1 11.1682 0.437882 11.1762
3447 1 23.3873 -0.503702 31.5742
3448 1 5.78352 8.78595 29.5299
3449 1 27.227 -2.34302 35.309
3450 1 12.6113 6.74007 16.9032
3451 1 -2.64413 30.5385 14.4027
3452 1 38.2044 0.332386 22.8921
3453 1 27.9162 20.4377 -1.549
3454 1 17.3137 20.3144 22.9951
3455 1 8.29081 -1.23366 22.6483
3456 1 5.86974 13.8863 36.5862
3457 1 33.3685 16.3331 21.7184
3458 1 31.1161 0.736813 3.27052
3459 1 34.0719 0.630907 4.29288
3460 1 34.1223 32.0586 34.0597
3461 1 36.2028 4.53215 8.52171
3462 1 19.5654 9.01372 34.0537
3463 1 22.4376 16.5869 -0.337942
3464 1 20.3692 20.0037 5.47531
3465 1 0.988608 17.0259 11.8312
3466 1 10.1128 23.7085 13.6434
3467 1 22.7703 -1.89072 32.8872
3468 1 8.05389 25.4429 2.06439
3469 1 36.4679 8.07497 28.4675
3470 1 20.4444 4.28228 31.9879
3471 1 26.3952 5.92334 1.80712
3472 1 22.174 6.10332 9.30458
3473 1 15.5997 12.7682 1.33295
3474 1 29.6387 35.293 22.4845
3475 1 24.5819 3.09519 18.9303
3476 1 28.68 34.2313 -1.34942
3477 1 1.25704 26.4987 -3.13081
3478 1 6.73684 4.73212 -2.94514
3479 1 24.6253 28.5254 -0.406922
3480 1 8.44847 8.01787 -2.41339
3481 1 12.4687 1.44449 12.9799
3482 1 -1.59895 31.2405 31.7927
3483 1 -1.71143 36.9682 15.3741
3484 1 30.7207 12.3003 34.2735
3485 1 21.2816 27.991 -2.10528
3486 1 31.7798 30.3668 6.91959
3487 1 20.5759 10.6651 6.0594
3488 1 30.1477 20.9193 24.8762
3489 1 12.1706 -2.35961 10.5311
3490 1 16.6866 24.889 0.0548054
3491 1 9.30806 16.2554 11.3425
3492 1 21.7502 24.1256 33.8593
3493 1 18.7708 4.33542 22.5323
3494 1 31.8361 11.4665 23.7367
3495 1 30.701 24.2204 22.4145
3496 1 22.4787 19.982 12.921
3497 1 33.6339 -2.77425 15.0346
3498 1 -0.672641 6.59446 12.118
3499 1 3.97282 26.4422 9.76181
3500 1 33.0783 -0.618647 20.9597
3501 1 28.4261 11.6923 3.12661
3502 1 9.34025 38.0022 0.986728
3503 1 37.5458 15.8023 23.1004
3504 1 23.8316 1.28305 15.2946
3505 1 29.9204 19.328 34.4093
3506 1 32.2562 27.7506 32.4184
3507 1 36.9991 34.901 28.2528
3508 1 4.20542 1.9261 15.6717
3509 1 18.9236 -0.0915646 12.9674
3510 1 29.9641 7.01068 7.70892
3511 1 25.7885 10.448 27.1809
3512 1 29.9444 21.7406 1.1646
3513 1 12.1693 2.27426 2.3578
3514 1 16.1432 -2.01675 8.11728
3515 1 9.30988 19.0751 29.0557
3516 1 15.5164 2.26884 31.5877
3517 1 14.1168 9.77749 28.9759
3518 1 30.9376 31.9718 10.5538
3519 1 11.7526 0.0360912 35.8992
3520 1 29.1449 0.235294 36.608
3521 1 27.2176 20.0478 2.50381
3522 1 35.3031 20.8658 34.6467
3523 1 38.1724 8.37791 5.97846
3524 1 26.2426 26.5056 18.2691
3525 1 17.1501 -2.53765 5.41228
3526 1 31.8439 -0.300345 13.5288
3527 1 34.0619 29.2789 30.8041
3528 1 13.5134 37.2651 1.10838
3529 1 32.868 34.4168 11.3819
3530 1 33.0353 10.6801 29.7681
3531 1 23.5836 13.4198 0.907567
3532 1 0.155798 28.2948 36.6182
3533 1 28.0258 20.0241 38.3647
3534 1 0.217037 20.1254 31.9046
3535 1 17.7746 28.6281 31.8236
3536 1 32.9816 17.9059 38.0951
3537 1 5.85135 0.197867 24.7615
3538 1 25.6182 2.90159 29.3594
3539 1 27.2886 14.2239 23.0355
3540 1 5.2433 11.6069 24.6739
3541 1 29.6436 -1.34463 36.6245
3542 1 17.4997 10.2507 18.1729
3543 1 18.7305 5.59923 6.33562
3544 1 33.3737 10.5943 0.411268
3545 1 27.2608 18.9216 38.3113
3546 1 23.8158 33.7195 20.9451
3547 1 34.5691 24.8283 32.8685
3548 1 25.3288 34.8168 8.92281
3549 1 1.93769 2.59407 1.0253
3550 1 -2.11436 34.1943 12.8826
3551 1 3.57212 15.552 25.329
3552 1 24.6024 2.28209 8.29097
3553 1 2.04886 13.801 18.8304
3554 1 32.274 17.466 31.3065
3555 1 -1.41981 29.4209 37.0625
3556 1 1.37222 16.7116 2.05769
3557 1 24.301 30.8872 7.56784
3558 1 33.2175 11.0082 18.4669
3559 1 15.6745 6.20476 14.7386
3560 1 23.8547 35.359 36.0492
3561 1 4.82281 -1.05722 32.7798
3562 1 16.971 22.8537 30.1041
3563 1 23.9496 0.674683 24.8171
3564 1 3.76871 6.65268 -0.0619278
3565 1 36.4868 14.4469 26.5973
3566 1 2.36028 27.6572 13.4048
3567 1 1.598 14.7704 13.5346
3568 1 26.5979 -2.93754 29.1338
3569 1 31.4046 10.9583 -1.18057
3570 1 15.1859 25.022 35.9417
3571 1 6.2351 31.6034 32.3246
3572 1 3.51169 12.1803 -0.491457
3573 1 -0.0906993 21.959 27.2305
3574 1 38.4005 -1.95491 24.555
3575 1 15.5505 25.6133 8.85782
3576 1 -0.73954 24.1471 23.7135
3577 1 38.1846 8.69843 37.539
3578 1 23.3166 30.6594 13.0103
3579 1 11.1102 -2.80503 17.6603
3580 1 -2.3077 9.35892 33.769
3581 1 38.4601 -2.4107 20.9867
3582 1 34.5996 19.7557 30.8339
3583 1 35.3992 26.02 24.6172
3584 1 7.54457 10.0929 33.0699
3585 1 22.9995 20.5144 14.372
3586 1 24.9285 7.16552 11.5423
3587 1 35.3748 2.48555 7.13471
3588 1 22.9853 4.47875 29.1614
3589 1 31.1979 -1.83223 17.6213
3590 1 37.7868 21.8924 1.97871
3591 1 30.5495 26.2165 17.1912
3592 1 27.3142 32.9152 36.1399
3593 1 11.0049 37.4425 7.44834
3594 1 11.4614 20.9008 29.4553
3595 1 8.32099 38.6902 6.16856
3596 1 36.762 3.07852 0.495225
3597 1 13.7085 35.7323 13.7335
3598 1 35.6475 2.14065 -0.946505
3599 1 4.36288 -1.13713 12.4773
3600 1 26.7433 -2.74762 4.18727
3601 1 26.6768 34.9232 21.5902
3602 1 29.9545 14.7636 8.31303
3603 1 3.35744 37.5672 25.4102
3604 1 23.2205 11.5338 28.5065
3605 1 37.9724 30.5746 20.5233
3606 1 30.393 20.4795 7.26663
3607 1 2.84726 19.1736 31.4408
3608 1 27.9657 17.1865 23.2963
3609 1 37.8547 4.89017 33.6584
3610 1 10.6819 13.9727 21.6963
3611 1 19.7696 -0.535355 38.0799
3612 1 27.4265 37.7881 37.9497
3613 1 16.7356 -0.886342 17.8744
3614 1 38.6394 4.33821 36.113
3615 1 30.6829 12.4464 19.3132
3616 1 31.9107 12.3136 32.6866
3617 1 7.85557 21.5387 27.0374
3618 1 32.6235 14.9318 9.13487
3619 1 3.71338 -1.91032 14.2479
3620 1 28.551 38.6201 26.9139
3621 1 15.9392 2.62762 38.4145
3622 1 19.7103 37.0115 22.8901
3623 1 35.4816 29.1707 7.80975
3624 1 15.0922 3.51944 15.1418
3625 1 27.3941 4.21728 18.9655
3626 1 8.61644 25.7763 28.8125
3627 1 11.025 -2.23341 21.9599
3628 1 8.58007 -1.06025 0.337563
3629 1 29.1453 24.3707 10.547
3630 1 0.498537 22.1535 9.28426
3631 1 26.9766 9.63302 5.4016
3632 1 32.8506 18.9494 24.5615
3633 1 18.6696 21.4387 3.03155
3634 1 14.4317 0.0110469 11.2199
3635 1 2.34315 34.0295 11.9644
3636 1 5.12139 23.8228 -1.33151
3637 1 17.1168 19.4196 37.9802
3638 1 20.9232 22.231 23.0674
3639 1 34.5441 36.5955 8.88707
3640 1 17.8204 37.4522 33.3789
3641 1 33.2754 11.0907 26.8394
3642 1 1.43532 31.3445 16.1027
3643 1 22.1867 4.56332 18.6168
3644 1 30.4101 11.4059 2.78026
3645 1 31.5314 32.8156 29.7007
3646 1 20.2393 10.9114 30.2091
3647 1 9.26256 28.3933 34.6505
3648 1 5.28878 16.9116 2.85142
3649 1 0.0370581 20.1033 22.2141
3650 1 23.403 26.9275 30.9012
3651 1 5.65784 27.107 19.104
3652 1 19.5572 32.1517 10.2295
3653 1 -0.437444 -2.24262 27.8601
3654 1 15.75 38.1434 18.2058
3655 1 35.7029 16.3581 2.56381
3656 1 31.3893 34.7327 24.2167
3657 1 22.5189 26.712 35.5196
3658 1 30.9126 25.4353 -0.162528
3659 1 26.5334 35.6916 15.3304
3660 1 29.3791 -1.967 16.8006
3661 1 26.6677 8.09883 11.8789
3662 1 13.3847 34.5873 36.5479
3663 1 17.8963 16.6884 33.7085
3664 1 19.6493 11.6585 22.9586
3665 1 11.3983 17.7841 -0.772013
3666 1 24.9165 7.31927 14.4791
3667 1 1.31629 23.4261 6.58181
3668 1 2.94424 35.0396 35.9028
3669 1 20.0193 20.9693 13.7926
3670 1 15.3527 36.4761 29.4537
3671 1 6.69581 15.7738 5.27086
3672 1 33.3293 25.0203 19.4565
3673 1 36.123 10.2047 30.4407
3674 1 4.88604 -0.181847 27.6461
3675 1 7.46559 29.2275 -2.05838
3676 1 36.9229 31.7819 8.1833
3677 1 9.55789 8.85308 22.3328
3678 1 1.02864 6.16569 14.4032
3679 1 31.98 9.51171 33.8961
3680 1 9.97047 8.62906 9.33434
3681 1 4.08611 22.845 10.1966
3682 1 30.7648 8.50753 31.0751
3683 1 3.96127 30.9369 1.87302
3684 1 10.6334 37.9668 18.1133
3685 1 5.34402 17.9256 25.7213
3686 1 23.6076 6.45503 -2.98477
3687 1 34.61 8.1774 7.76353
3688 1 25.8992 21.3531 22.3416
3689 1 26.7313 9.75465 8.41084
3690 1 25.4828 19.6011 -2.90363
3691 1 -0.315615 16.4223 4.60508
3692 1 7.38439 29.6653 14.055
3693 1 3.0076 23.8312 24.2643
3694 1 22.2332 6.37908 32.6084
3695 1 22.0748 1.84626 23.6217
3696 1 13.9382 33.6775 24.6881
3697 1 33.8747 10.2139 33.5462
3698 1 35.4894 26.3568 9.08146
3699 1 29.4378 34.3652 26.5951
3700 1 26.7028 38.5913 36.9953
3701 1 37.8251 20.0986 22.4757
3702 1 30.0411 24.0023 13.6472
3703 1 38.3814 14.9257 12.5038
3704 1 17.5076 30.0422 11.3388
3705 1 -2.97926 33.1421 21.782
3706 1 37.2583 -0.664809 35.0116
3707 1 20.1255 25.6994 26.0822
3708 1 13.3355 3.8964 33.9036
3709 1 31.5784 8.19545 5.2398
3710 1 21.0455 23.0858 37.5606
3711 1 13.6516 23.8813 15.9781
3712 1 34.7252 12.0364 33.7179
3713 1 37.4654 37.2217 1.09484
3714 1 -1.80593 -0.985271 34.5382
3715 1 14.7888 13.4864 30.1523
3716 1 30.6771 0.357296 31.0139
3717 1 16.645 22.1749 20.9499
3718 1 4.94135 8.77176 30.6173
3719 1 14.791 17.8261 7.51823
3720 1 6.74259 -0.720497 9.17393
3721 1 18.5497 15.2248 16.8406
3722 1 14.0338 11.9283 5.10659
3723 1 10.0721 30.1269 18.5829
3724 1 38.4211 32.9884 -2.70341
3725 1 20.4113 27.2938 13.2207
3726 1 22.016 36.3763 19.6334
3727 1 26.83 19.3953 12.4899
3728 1 4.39696 12.8275 1.20117
3729 1 23.4998 28.6954 23.3787
3730 1 19.6049 6.61343 26.9352
3731 1 26.4955 21.1915 9.03485
3732 1 36.3159 23.475 4.12217
3733 1 32.6376 -2.9826 14.3046
3734 1 7.27636 8.29463 32.1537
3735 1 35.9672 33.9387 19.138
3736 1 19.5776 24.5117 8.2604
3737 1 15.0375 23.9862 32.5369
3738 1 7.33571 4.22424 5.19027
3739 1 21.2616 4.69584 15.0052
3740 1 14.742 6.03239 35.5787
3741 1 31.9121 24.7231 34.8596
3742 1 32.4554 33.4248 19.2442
3743 1 18.7219 33.3359 3.36855
3744 1 36.4012 14.4029 6.89935
3745 1 17.5017 26.4689 25.0366
3746 1 5.9214 31.0678 3.9506
3747 1 6.65512 -6.99107e-04 4.16052
3748 1 -0.757478 24.9749 27.5584
3749 1 35.0676 9.23671 4.81325
3750 1 31.5771 33.7345 34.1783
3751 1 5.73208 25.8108 28.9301
3752 1 20.4692 6.96487 12.6271
3753 1 0.951858 36.4134 24.1922
3754 1 19.2962 21.8401 35.2765
3755 1 23.7947 -0.364204 22.0634
3756 1 28.2346 14.3606 1.77796
3757 1 16.274 16.8623 17.0066
3758 1 22.28 2.26089 33.7978
3759 1 10.9116 16.3594 19.9959
3760 1 21.849 7.09914 2.54839
3761 1 26.6112 26.6906 22.1871
3762 1 -2.082 37.6707 34.4076
3763 1 11.094 4.67516 11.6432
3764 1 35.1753 33.4746 15.7065
3765 1 -2.47109 16.6385 -0.473817
3766 1 30.5855 36.1173 38.5342
3767 1 38.4163 9.89594 12.0082
3768 1 25.4678 8.44391 23.2353
3769 1 32.3987 26.9862 27.083
3770 1 7.20028 16.3768 30.6251
3771 1 9.78068 35.309 28.417
3772 1 20.7027 18.629 23.9175
3773 1 37.9629 34.698 7.0801
3774 1 27.5807 -1.92121 7.07374
3775 1 2.77145 31.7572 30.43
3776 1 35.2931 5.26853 2.24954
3777 1 30.5855 -2.18089 19.4961
3778 1 3.6112 34.1628 34.9314
3779 1 -1.70581 14.9513 20.5508
3780 1 20.267 26.9933 1.65002
3781 1 22.5652 25.2533 17.5497
3782 1 17.5605 5.64585 16.7371
3783 1 33.8627 4.74571 14.5761
3784 1 0.0512912 24.0125 19.4348
3785 1 -2.98352 12.7314 22.0821
3786 1 31.5395 5.33284 0.658773
3787 1 3.02022 4.22155 21.1988
3788 1 27.4089 33.6435 7.40418
3789 1 27.6397 18.8933 18.1084
3790 1 37.9617 22.6914 28.6451
3791 1 6.42064 17.8714 19.2074
3792 1 19.7853 28.0323 7.04592
3793 1 -1.97394 7.74038 27.7153
3794 1 26.8809 13.8566 13.6378
3795 1 34.2868 35.3009 23.5396
3796 1 9.117 21.5384 31.2012
3797 1 4.29345 22.8349 34.5649
3798 1 7.17822 22.1744 17.9794
3799 1 10.4634 37.1504 9.36484
3800 1 16.7728 35.8183 6.49609
3801 1 16.1543 34.939 36.7739
3802 1 26.6509 22.4087 36.384
3803 1 19.5636 31.6807 34.1265
3804 1 0.46669 10.4645 31.8205
3805 1 2.16253 34.3729 8.03583
3806 1 13.1842 21.52 20.3616
3807 1 -2.59496 0.559597 3.13376
3808 1 36.9665 32.2391 6.23861
3809 1 4.3772 18.6578 -2.78857
3810 1 7.00482 25.8567 18.2652
3811 1 20.1755 19.4895 16.6573
3812 1 9.25755 -0.993903 19.9825
3813 1 -0.499527 20.8788 26.3576
3814 1 14.3543 3.21962 13.4502
3815 1 34.1955 -0.129706 26.6553
3816 1 23.1131 31.5198 38.7129
3817 1 9.11785 20.9184 25.6023
3818 1 11.6422 15.0682 5.26403
3819 1 36.0403 -0.907737 26.3215
3820 1 3.78216 22.304 1.34968
3821 1 22.2892 30.3296 -0.147604
3822 1 6.1906 2.39796 18.9755
3823 1 27.3498 14.9559 9.61953
3824 1 34.5729 10.1992 -2.39537
3825 1 22.4265 13.0699 20.7425
3826 1 29.7177 9.9723 24.5353
3827 1 35.9315 13.0466 16.7242
3828 1 24.0273 28.4781 28.2107
3829 1 27.4719 3.74871 5.04075
3830 1 33.5521 27.2355 6.97758
3831 1 17.7714 9.47341 0.87569
3832 1 20.9782 8.38811 -1.59131
3833 1 10.8615 22.6732 3.74634
3834 1 25.7852 -0.896359 20.4125
3835 1 -1.4803 7.16559 15.526
3836 1 7.15729 31.7878 4.26143
3837 1 23.2434 18.7041 36.8911
3838 1 11.387 24.2224 10.0194
3839 1 11.478 18.9503 16.3335
3840 1 11.5175 37.6355 25.1546
3841 1 34.8899 0.404144 3.06988
3842 1 33.6569 9.45756 29.2619
3843 1 38.2792 1.42079 9.3126
3844 1 31.2301 10.9159 1.74825
3845 1 4.03297 2.38199 37.7357
3846 1 28.4176 21.4732 36.5026
3847 1 19.3388 26.8438 36.9578
3848 1 9.49464 27.7087 18.1284
3849 1 32.1356 3.39273 25.3303
3850 1 31.5328 32.7146 0.680879
3851 1 37.5701 32.8445 12.9492
3852 1 5.79394 1.7187 14.4073
3853 1 31.9898 34.1868 8.17538
3854 1 16.1396 11.7663 31.9976
3855 1 33.2024 -1.66033 12.9174
3856 1 24.7623 19.7495 1.19818
3857 1 32.2141 17.4088 16.3253
3858 1 15.2279 33.4706 4.23123
3859 1 7.25482 35.8247 7.82572
3860 1 1.22054 3.58477 24.5743
3861 1 30.0041 6.64472 17.6661
3862 1 2.68586 9.33553 0.556039
3863 1 7.63046 25.9063 3.31572
3864 1 19.9833 32.9395 16.6735
3865 1 21.612 27.7772 14.7745
3866 1 36.2974 9.35494 37.2852
3867 1 3.1345 33.7294 6.38481
3868 1 2.57184 22.6934 4.1795
3869 1 2.1798 28.9656 19.1429
3870 1 34.4948 5.73279 26.4531
3871 1 -0.0936394 33.5625 30.2664
3872 1 4.50473 8.06971 17.2443
3873 1 3.43925 -2.91718 36.3857
3874 1 20.8082 33.4648 26.418
3875 1 1.6371 17.2154 14.3965
3876 1 -0.677468 14.0566 1.82803
3877 1 24.1554 33.4941 -0.909461
3878 1 -0.516025 16.7768 18.4453
3879 1 22.0449 37.2555 1.39627
3880 1 1.1943 28.4038 -0.239035
3881 1 33.1269 4.0151 36.2737
3882 1 7.65489 35.8496 23.7681
3883 1 35.1954 15.8317 17.1194
3884 1 26.0352 4.1127 6.42839
3885 1 33.7817 33.9367 0.600416
3886 1 28.7981 -3.08396 16.6628
3887 1 13.5544 30.7656 2.43812
3888 1 6.5095 30.7593 7.71834
3889 1 28.3603 13.5969 20.337
3890 1 27.5143 -0.589226 13.4551
3891 1 10.7598 -0.623003 29.69
3892 1 24.0473 23.2253 12.0649
3893 1 0.492009 18.4585 2.54075
3894 1 21.1333 35.1265 18.3071
3895 1 8.90191 34.769 22.607
3896 1 33.725 4.6088 22.3058
3897 1 8.95141 1.55306 14.1842
3898 1 17.8883 18.8369 7.13787
3899 1 24.9556 36.592 21.5707
3900 1 7.71604 -2.51264 13.3265
3901 1 19.4368 26.3375 13.6356
3902 1 22.1597 36.6487 11.9812
3903 1 36.1714 21.1133 7.57113
3904 1 35.6637 4.37504 34.9628
3905 1 8.49068 8.04089 2.38436
3906 1 12.5892 20.3244 11.7986
3907 1 30.8341 27.941 34.6623
3908 1 19.2611 0.143936 1.71749
3909 1 36.5601 16.7705 29.1763
3910 1 23.4642 25.4963 4.23533
3911 1 8.59636 21.8851 2.65734
3912 1 14.1773 29.6005 12.0688
3913 1 11.4311 6.1395 33.9612
3914 1 30.4983 11.9399 11.3064
3915 1 -2.65332 24.6993 10.2091
3916 1 27.0626 21.9478 23.8959
3917 1 -0.0624504 22.1729 36.619
3918 1 14.5475 34.0456 10.4101
3919 1 35.2945 27.7136 16.2891
3920 1 27.799 29.1706 33.6215
3921 1 -0.606301 13.9261 14.6236
3922 1 19.2535 -2.66516 13.7927
3923 1 7.35829 29.1912 5.36382
3924 1 13.3325 36.7811 15.4149
3925 1 6.09096 29.3618 2.92493
3926 1 8.56843 4.54956 31.8575
3927 1 16.074 4.96502 30.4297
3928 1 2.3736 21.4289 23.7647
3929 1 15.7326 29.0767 38.0836
3930 1 9.3885 6.41503 31.7357
3931 1 8.44142 8.69051 37.5538
3932 1 35.407 34.208 -0.544517
3933 1 20.399 2.4703 9.86231
3934 1 11.6826 29.2878 4.31621
3935 1 12.1664 23.96 11.1294
3936 1 4.06569 16.0733 8.7582
3937 1 29.3043 33.04 20.8707
3938 1 33.9606 19.6652 12.5254
3939 1 1.14391 25.2134 36.0208
3940 1 9.01061 22.7161 37.5501
3941 1 31.6142 3.35786 10.6444
3942 1 21.92 26.0165 10.872
3943 1 30.4743 9.79801 19.2255
3944 1 16.3443 2.23 9.77478
3945 1 26.2287 22.8391 7.869
3946 1 4.58708 27.479 28.8659
3947 1 24.4226 18.1474 20.727
3948 1 6.06971 7.72123 38.5291
3949 1 13.088 36.0273 26.2818
3950 1 18.6144 7.4655 12.0737
3951 1 1.86 16.3693 34.0304
3952 1 9.34703 29.7745 25.8235
3953 1 10.495 23.2305 -2.43908
3954 1 22.7482 19.1112 4.98824
3955 1 18.7611 33.4123 12.5062
3956 1 18.3937 16.0761 27.6839
3957 1 36.4125 14.9118 12.9563
3958 1 -0.41281 -2.59123 19.1745
3959 1 30.897 18.8606 3.45811
3960 1 19.5789 32.5022 31.3861
3961 1 11.3692 9.20041 29.8472
3962 1 -0.962939 9.88876 9.1378
3963 1 34.7828 36.1372 6.18732
3964 1 26.4558 0.157602 -0.0704676
3965 1 19.1848 15.7457 31.2816
3966 1 -1.82178 9.06875 20.1002
3967 1 26.5875 21.5396 10.509
3968 1 21.6978 8.05366 1.57671
3969 1 10.5608 3.28484 10.3
3970 1 29.9602 30.5136 38.5121
3971 1 19.1597 5.91236 10.0532
3972 1 0.875529 -1.0921 31.5209
3973 1 17.9894 28.1138 11.7128
3974 1 30.7345 7.21131 14.1544
3975 1 -0.0667309 32.2084 18.4331
3976 1 0.0129252 -1.58054 5.89521
3977 1 28.6539 20.1343 25.9431
3978 1 28.6546 -3.13763 3.70183
3979 1 29.3279 12.685 1.60289
3980 1 9.28435 16.7847 4.45694
3981 1 33.2109 2.20597 17.0921
3982 1 10.2793 -2.09971 25.7117
3983 1 16.9376 2.17486 37.476
3984 1 38.2972 1.95121 29.6756
3985 1 7.1731 24.5799 36.9868
3986 1 19.0466 29.9277 30.9685
3987 1 28.8146 34.9375 33.8187
3988 1 34.4925 21.5247 11.8491
3989 1 20.799 20.5646 11.9709
3990 1 13.2445 -0.684905 31.39
3991 1 25.0631 30.0111 4.76514
3992 1 14.3813 25.1981 32.8809
3993 1 30.1838 38.5435 21.0626
3994 1 36.0004 9.37774 28.6247
3995 1 1.75404 31.1494 6.40267
3996 1 0.79365 26.2262 25.9
3997 1 10.2012 2.67586 34.58
3998 1 34.0498 27.6905 10.7734
3999 1 34.4419 16.0104 0.0489404
4000 1 19.8069 35.0614 34.4185
4001 1 17.4558 26.6322 26.395
4002 1 38.1136 12.2926 37.4835
4003 1 18.3416 34.5879 19.4508
4004 1 12.9309 13.5266 35.4091
4005 1 32.4616 3.64199 35.0518
4006 1 5.9464 18.0701 10.0271
4007 1 29.6668 15.931 16.1144
4008 1 23.2749 2.18414 6.04661
4009 1 1.39989 13.147 35.8111
4010 1 0.985403 10.4489 12.8744
4011 1 26.9664 32.7915 9.16737
4012 1 -1.18378 33.1023 1.90687
4013 1 28.1886 7.09987 18.4825
4014 1 2.80552 26.9157 29.6282
4015 1 26.1856 36.7265 -2.71227
4016 1 16.5978 37.6741 25.7344
4017 1 4.74096 27.0574 23.2115
4018 1 13.4479 36.4209 22.9663
4019 1 16.7379 30.0603 19.7801
4020 1 7.06973 7.2408 29.5416
4021 1 7.70823 14.1379 37.3878
4022 1 -2.76834 25.8771 -1.32336
4023 1 25.597 35.793 32.4085
4024 1 28.5795 -0.13488 27.965
4025 1 10.3856 16.576 25.7277
4026 1 14.2143 11.2021 7.47734
4027 1 6.8295 9.70051 10.3345
4028 1 33.2529 9.95492 4.38369
4029 1 21.029 3.70782 37.3176
4030 1 17.4527 2.06108 18.1313
4031 1 9.73359 3.81101 20.4601
4032 1 -0.0388216 29.7651 3.27231
4033 1 9.56407 34.5057 26.5569
4034 1 0.881254 4.53608 9.61694
4035 1 4.42205 17.6056 22.4801
4036 1 28.3767 11.0917 -0.254185
4037 1 4.04034 -2.47417 20.2409
4038 1 30.7322 34.897 0.470166
4039 1 35.9403 0.445909 21.0995
4040 1 5.77571 6.2498 11.1694
4041 1 35.1901 21.546 9.25789
4042 1 22.2758 22.1433 35.5164
4043 1 29.6176 36.7831 31.5291
4044 1 26.2094 -1.89434 22.0751
4045 1 15.0984 16.9062 18.6359
4046 1 5.80812 8.31141 9.26919
4047 1 -0.743046 28.1505 32.2098
4048 1 15.9826 30.8976 30.8999
4049 1 20.1643 14.2125 30.3591
4050 1 2.36469 4.84852 35.3879
4051 1 14.295 -0.925349 5.83826
4052 1 15.1676 4.67556 8.35248
4053 1 27.2604 37.9294 25.5415
4054 1 -0.945452 18.059 5.62117
4055 1 1.30546 23.2529 37.6815
4056 1 28.2425 3.22783 18.4709
4057 1 8.63576 21.0304 20.6499
4058 1 17.8089 38.6009 30.8638
4059 1 23.9442 -1.80465 36.2839
4060 1 11.0581 1.78311 6.40961
4061 1 33.5601 19.4959 5.88811
4062 1 19.4422 11.6539 27.2763
4063 1 0.10373 12.7243 36.0166
4064 1 9.60359 -1.67425 7.28001
4065 1 0.731681 12.1688 7.58418
4066 1 20.6997 14.6648 37.7106
4067 1 31.9977 19.9297 22.9654
4068 1 36.93 7.68789 13.0122
4069 1 36.3233 11.0062 34.4
4070 1 14.062 38.189 32.6669
4071 1 -2.73594 22.3146 -2.51206
4072 1 33.6538 4.99536 7.46718
4073 1 37.9027 26.4145 13.5381
4074 1 5.09606 0.0577889 9.98974
4075 1 8.93509 6.31284 8.44598
4076 1 3.73603 22.3234 29.5093
4077 1 36.6646 9.70151 12.9737
4078 1 17.381 28.6721 35.9314
4079 1 9.57548 15.4151 -0.170144
4080 1 4.44827 32.0129 15.0641
4081 1 6.36098 28.9076 33.8687
4082 1 27.9888 5.62736 30.3713
4083 1 25.0703 24.5888 3.44605
4084 1 20.673 36.714 33.6183
4085 1 30.3898 14.6829 3.61408
4086 1 26.2098 17.9085 13.7243
4087 1 6.94148 28.1927 32.0935
4088 1 34.8117 2.00318 9.00038
4089 1 9.31551 19.6083 4.11992
4090 1 5.87266 33.7279 22.657
4091 1 18.632 32.6009 19.6327
4092 1 1.43294 20.8696 17.9211
4093 1 5.73732 37.9541 34.7727
4094 1 31.4174 31.4017 0.274203
4095 1 3.56633 33.9431 17.0814
4096 1 21.3011 3.96892 7.17384
4097 1 16.8388 26.3421 15.8809
4098 1 33.1883 14.8274 6.2129
4099 1 23.9651 25.9659 34.3412
4100 1 24.4045 12.1422 37.4762
4101 1 11.2347 1.88232 26.6031
4102 1 2.40706 23.452 0.374754
4103 1 21.3634 -0.605894 6.2437
4104 1 34.2851 12.7771 5.42271
4105 1 23.6072 24.4107 31.7573
4106 1 3.47958 17.0065 29.8527
4107 1 32.0388 12.7601 28.645
4108 1 33.533 8.49023 -2.74092
4109 1 18.7704 10.4618 11.3754
4110 1 20.4897 27.7029 18.3035
4111 1 -0.492689 20.8364 12.7233
4112 1 26.2984 3.78816 12.3464
4113 1 38.5622 10.2361 10.6641
4114 1 17.4893 21.8544 31.7762
4115 1 22.3611 8.81896 10.997
4116 1 32.1222 33.6189 14.6295
4117 1 1.43013 7.52555 34.3749
4118 1 4.90459 3.88982 24.3248
4119 1 22.1677 2.15996 30.9022
4120 1 8.72026 10.4606 6.01887
4121 1 -2.58566 26.1932 16.0659
4122 1 16.97 33.5531 10.2783
4123 1 3.55905 19.7701 26.041
4124 1 19.7365 -1.32588 7.25507
4125 1 8.6551 17.274 20.2561
4126 1 -0.444778 11.1564 9.41955
4127 1 3.80968 31.6073 36.0036
4128 1 32.3745 8.07035 28.6092
4129 1 7.27118 29.7044 9.2546
4130 1 4.14463 14.0889 -0.420447
4131 1 19.3358 13.8873 9.267
4132 1 10.3326 7.5209 -0.506795
4133 1 37.4776 37.9725 15.9446
4134 1 -1.3562 2.4206 33.0908
4135 1 30.2289 28.2406 9.57022
4136 1 12.9036 18.8755 -0.0518547
4137 1 19.703 1.10583 -0.946251
4138 1 -0.029436 6.63025 29.6492
4139 1 2.43324 0.795493 11.4894
4140 1 16.4643 21.4824 0.512598
4141 1 29.9408 32.4219 13.0403
4142 1 5.16295 18.0845 29.7068
4143 1 4.90354 3.56683 17.9631
4144 1 15.6661 24.0973 24.4367
4145 1 18.5169 13.6904 29.2745
4146 1 37.9867 31.3706 23.3312
4147 1 6.03478 14.3535 2.85361
4148 1 24.7393 -2.67568 15.6009
4149 1 25.7911 0.0577533 1.82536
4150 1 -1.71326 17.0566 22.6926
4151 1 9.53426 37.9181 13.633
4152 1 9.94306 34.7275 4.71142
4153 1 24.1134 1.10566 -2.90226
4154 1 2.13427 25.3618 4.45545
4155 1 16.6809 14.8528 6.10407
4156 1 23.5843 36.7594 12.2436
4157 1 9.69908 0.209389 38.0259
4158 1 6.38838 24.4073 13.4731
4159 1 -1.58667 25.4366 25.7826
4160 1 0.737892 19.546 36.6434
4161 1 37.6093 -2.15429 33.7186
4162 1 11.0343 14.2043 35.0709
4163 1 19.6664 4.0349 3.59215
4164 1 22.4458 32.7067 18.4576
4165 1 -3.05162 16.3234 16.8207
4166 1 2.93128 20.9483 7.13313
4167 1 12.7401 33.7994 4.16025
4168 1 23.0804 30.2666 35.9988
4169 1 15.9925 11.8005 22.0077
4170 1 -0.922236 10.1672 32.5731
4171 1 31.1583 27.4465 21.2147
4172 1 17.9696 25.1944 34.6838
4173 1 20.7313 11.0939 35.7875
4174 1 20.0216 28.0428 5.02239
4175 1 19.9823 28.0952 11.4672
4176 1 8.14258 11.7274 27.3354
4177 1 37.0633 16.1699 9.1303
4178 1 29.1797 30.2447 1.83774
4179 1 -0.235308 27.8472 15.388
4180 1 12.3668 17.6484 20.5219
4181 1 5.0337 -0.793094 5.06036
4182 1 19.3772 2.60152 6.96693
4183 1 25.7389 2.65699 5.08448
4184 1 20.565 31.6534 21.7962
4185 1 15.5212 15.0057 15.367
4186 1 24.5993 20.8237 18.5563
4187 1 8.43636 6.22278 22.2941
4188 1 28.4425 31.6317 30.5627
4189 1 8.48807 14.5568 18.4938
4190 1 7.73232 13.3221 0.8855
4191 1 32.5214 9.37384 35.8609
4192 1 21.9447 23.1802 29.756
4193 1 29.4184 25.7241 29.4902
4194 1 7.39343 29.6963 25.2708
4195 1 15.5774 10.3232 11.6609
4196 1 24.9596 31.4906 20.1295
4197 1 0.934245 34.1615 -0.909284
4198 1 -1.55081 -2.46714 20.1522
4199 1 35.9884 15.3881 33.9846
4200 1 6.99607 3.85468 0.468274
4201 1 10.7414 5.72907 1.83271
4202 1 2.21919 6.67851 13.7468
4203 1 1.47511 7.15459 37.1625
4204 1 32.4136 26.5587 -1.99809
4205 1 27.3809 24.3433 28.2846
4206 1 5.68326 3.4775 37.7695
4207 1 27.279 -2.77394 1.18272
4208 1 37.209 17.2988 37.4434
4209 1 17.4246 10.7995 10.9605
4210 1 34.3965 35.1658 2.08188
4211 1 4.01099 24.4203 14.3607
4212 1 34.5769 9.23094 14.5457
4213 1 13.6266 20.1933 18.9057
4214 1 28.331 11.6961 30.2144
4215 1 3.48985 30.3988 5.68458
4216 1 28.2315 -1.99672 5.32831
4217 1 18.6625 15.7942 9.27832
4218 1 3.40394 36.0743 14.2767
4219 1 5.85165 27.4309 -3.07994
4220 1 15.9402 33.3286 34.1606
4221 1 6.04649 9.99441 36.5173
4222 1 19.9845 16.038 15.6738
4223 1 0.914171 26.4257 21.3419
4224 1 36.4432 19.5771 30.0213
4225 1 19.3822 -2.0457 31.0011
4226 1 -1.79725 11.0 2.34776
4227 1 25.5597 34.6956 33.3515
4228 1 24.3776 3.67883 24.2284
4229 1 25.9814 1.35 32.3032
4230 1 24.8248 10.1159 3.19784
4231 1 12.0435 6.43048 -2.98849
4232 1 9.3257 2.62375 -0.41826
4233 1 28.087 19.1834 11.4908
4234 1 24.8713 12.3168 15.2677
4235 1 -3.03452 16.7418 4.35341
4236 1 4.06303 28.0723 7.16899
4237 1 23.1341 4.68682 32.0651
4238 1 16.274 27.8394 17.9156
4239 1 -1.28012 30.245 23.3219
4240 1 -0.664987 21.5228 -1.44049
4241 1 30.0345 2.16437 27.3355
4242 1 29.2116 24.3329 37.6542
4243 1 23.8632 31.5786 -0.318374
4244 1 15.7545 16.7252 26.2093
4245 1 12.4442 0.79505 27.7704
4246 1 3.83795 13.7277 26.2039
4247 1 15.7217 20.4518 2.07366
4248 1 25.2209 10.7514 17.4844
4249 1 33.7677 16.2902 11.0541
4250 1 24.0731 19.5675 36.4405
4251 1 13.4768 18.7589 10.8476
4252 1 30.7685 13.9008 37.7155
4253 1 4.4503 2.78214 8.47276
4254 1 31.8294 30.8547 14.9379
4255 1 28.6003 10.2602 10.0783
4256 1 30.4538 -0.165234 19.5636
4257 1 19.322 2.78542 2.06363
4258 1 -0.542503 38.3771 33.3646
4259 1 28.4384 4.45124 10.8255
4260 1 13.234 8.16996 35.2373
4261 1 35.3128 17.163 14.7187
4262 1 4.58215 10.7056 4.4599
4263 1 28.4999 35.6645 14.9093
4264 1 11.9144 3.26895 8.80448
4265 1 25.4739 5.50666 35.6333
4266 1 24.1973 38.2742 -2.86827
4267 1 31.6147 18.0574 36.1866
4268 1 18.3043 8.79114 3.69081
4269 1 25.5571 14.3624 31.7555
4270 1 25.4541 29.8897 1.64701
4271 1 0.572368 30.2372 -0.866038
4272 1 25.8771 7.45839 37.4253
4273 1 22.4305 8.89007 -2.90135
4274 1 3.69606 16.5009 4.01729
4275 1 16.5134 9.6571 -2.65708
4276 1 12.3041 22.756 -0.110001
4277 1 37.6287 22.2439 5.9553
4278 1 25.5728 13.4565 1.23226
4279 1 26.2669 -2.38251 8.51679
4280 1 2.1428 12.2786 17.5083
4281 1 31.8819 19.8549 10.8012
4282 1 22.6364 13.7235 18.8062
4283 1 -2.3026 37.7704 12.8778
4284 1 8.94646 25.7107 33.4582
4285 1 29.2875 3.09726 3.27305
4286 1 -0.307608 27.8913 3.958
4287 1 18.2348 24.586 4.70535
4288 1 -1.26647 4.51645 16.9331
4289 1 4.31607 0.886871 9.14027
4290 1 1.2202 31.4988 -2.30427
4291 1 37.8421 37.745 3.01696
4292 1 15.8283 17.3774 14.0301
4293 1 7.3994 14.461 9.22387
4294 1 10.8354 17.5294 14.2432
4295 1 26.6163 7.93535 29.8259
4296 1 18.4131 12.522 2.69943
4297 1 15.5424 7.79675 30.6934
4298 1 30.3045 3.66061 -1.19694
4299 1 27.304 17.1285 2.74516
4300 1 -1.59754 11.4751 28.5414
4301 1 36.9792 5.93555 3.13679
4302 1 16.9378 3.0959 32.7066
4303 1 12.7422 25.6435 29.7654
4304 1 18.899 3.30505 10.947
4305 1 0.441491 7.26848 28.5531
4306 1 9.76221 7.48154 2.22372
4307 1 29.9207 17.4846 35.2606
4308 1 34.2166 2.77181 6.50642
4309 1 38.5272 7.59598 21.8112
4310 1 26.9542 29.5584 -1.82591
4311 1 15.3949 18.2651 6.45139
4312 1 20.0014 32.9335 24.6672
4313 1 6.37808 17.228 13.7558
4314 1 30.5031 34.99 -0.93685
4315 1 8.68121 5.2541 24.0398
4316 1 30.2329 11.5264 6.67628
4317 1 10.3004 38.5544 11.8809
4318 1 38.6144 22.2999 14.1463
4319 1 20.9859 14.1526 17.697
4320 1 32.0564 25.6086 14.8221
4321 1 18.3825 24.3698 7.60058
4322 1 10.0854 28.5585 28.3629
4323 1 23.3192 -0.27085 4.08876
4324 1 31.1718 13.1838 8.5618
4325 1 34.0325 30.5673 24.0787
4326 1 22.8371 35.1618 22.6272
4327 1 37.4525 38.4833 31.5577
4328 1 22.8426 17.1537 19.9918
4329 1 5.59179 19.6141 36.7295
4330 1 9.04693 3.29974 13.1824
4331 1 34.2512 8.8641 32.0836
4332 1 -2.23871 8.31718 9.06324
4333 1 11.5372 34.3792 14.5681
4334 1 23.3225 16.4984 16.713
4335 1 1.56201 15.8077 36.7769
4336 1 19.743 31.1068 22.8272
4337 1 -1.15844 13.0491 17.6504
4338 1 37.6265 31.3863 -1.74207
4339 1 8.90905 27.7083 13.1185
4340 1 17.319 5.03526 32.8366
4341 1 7.59102 5.80883 26.6306
4342 1 28.4288 9.0515 7.57917
4343 1 19.3586 20.9682 8.12246
4344 1 28.9865 38.5903 9.29646
4345 1 25.9381 17.6073 37.5346
4346 1 19.0773 9.44624 5.41947
4347 1 15.4233 13.9052 36.7491
4348 1 23.562 13.7992 15.6653
4349 1 20.4922 33.4545 20.9244
4350 1 36.3443 31.1241 27.6352
4351 1 18.6745 -0.576442 -1.40393
4352 1 -0.866107 3.50538 1.93184
4353 1 5.47291 33.5558 5.03582
4354 1 31.6423 11.9143 22.4183
4355 1 4.00497 3.53459 10.2848
4356 1 5.09089 21.3345 23.1954
4357 1 20.3367 11.9691 -2.69026
4358 1 5.6298 18.9567 -1.2252
4359 1 15.9963 1.13273 -2.11946
4360 1 37.4794 34.1155 -2.83586
4361 1 32.1308 18.0115 0.170316
4362 1 17.818 19.8575 28.784
4363 1 4.33365 4.47028 13.58
4364 1 9.87239 1.92723 4.77941
4365 1 15.6685 28.3361 19.7731
4366 1 34.4862 33.4464 28.7712
4367 1 25.0107 36.6008 1.66212
4368 1 36.1227 26.1104 6.61487
4369 1 20.2828 35.8407 24.4169
4370 1 6.61802 29.8308 34.9544
4371 1 28.2816 5.54188 12.5239
4372 1 0.98799 30.8155 35.183
4373 1 0.595288 3.47232 28.8486
4374 1 2.89836 34.9216 29.8965
4375 1 12.2775 5.6339 14.2689
4376 1 1.90632 30.6233 34.1608
4377 1 36.7062 35.6855 34.793
4378 1 30.7268 31.9818 7.5297
4379 1 11.9887 9.49316 17.3341
4380 1 31.9208 19.4359 31.351
4381 1 13.2793 1.32549 38.2546
4382 1 -0.121298 11.7444 19.8722
4383 1 10.161 5.24152 17.2523
4384 1 9.81136 0.671858 8.70421
4385 1 12.6632 16.7563 14.4935
4386 1 -2.48752 31.8071 7.02367
4387 1 15.6704 37.071 32.3454
4388 1 16.0756 26.9241 29.9546
4389 1 11.815 21.8457 32.047
4390 1 21.6719 38.2957 23.8235
4391 1 27.7555 -0.589034 12.0722
4392 1 24.7098 18.9715 17.7844
4393 1 4.28746 3.0702 23.4237
4394 1 36.7677 18.3558 0.84684
4395 1 -0.72325 -0.86566 -2.91983
4396 1 1.2166 35.2398 38.3845
4397 1 25.5883 24.9333 22.3025
4398 1 17.6631 13.3422 14.8628
4399 1 14.9686 6.05985 38.5281
4400 1 35.135 7.08543 17.9445
4401 1 21.2847 10.8208 31.9441
4402 1 -2.45969 24.4018 1.10714
4403 1 19.022 30.6762 7.93433
4404 1 -0.661267 -2.60581 7.51088
4405 1 26.5183 6.78114 -0.331404
4406 1 2.85862 15.1647 16.4115
4407 1 5.89514 -0.155813 16.723
4408 1 32.0382 26.2285 37.2471
4409 1 6.45662 21.9142 25.6113
4410 1 3.92023 6.10147 -1.99749
4411 1 14.2097 2.64757 14.6394
4412 1 3.17976 25.717 9.01635
4413 1 12.066 10.9324 32.4502
4414 1 11.8793 -0.415455 18.9844
4415 1 7.29152 14.8283 16.9076
4416 1 17.7624 35.7847 8.26339
4417 1 20.6023 21.7308 -2.87925
4418 1 -1.98359 37.3974 10.0093
4419 1 16.5313 36.1644 20.8861
4420 1 18.9239 16.9349 31.9837
4421 1 5.11661 37.2382 18.2408
4422 1 20.578 6.15971 28.6441
4423 1 6.35709 6.55821 14.3685
4424 1 12.142 3.19044 36.4061
4425 1 11.9967 6.41548 9.26443
4426 1 3.70468 33.2538 9.59602
4427 1 27.0692 35.3432 12.2842
4428 1 29.6635 4.34375 34.9991
4429 1 -2.31925 27.079 18.8519
4430 1 17.0632 19.7891 -0.435902
4431 1 21.3618 1.5535 18.4209
4432 1 23.0764 -2.30007 38.0261
4433 1 17.3568 15.2773 3.57673
4434 1 2.58376 18.1706 4.18596
4435 1 -0.999834 30.5411 6.43983
4436 1 14.6591 26.8485 35.3519
4437 1 26.3845 29.4621 27.2008
4438 1 4.9798 9.99845 6.99526
4439 1 36.809 1.65453 17.5348
4440 1 17.0651 9.95402 36.0401
4441 1 36.5056 14.8206 15.9681
4442 1 11.1026 21.5888 11.3651
4443 1 26.4281 17.9706 35.6167
4444 1 9.04351 34.0919 19.3887
4445 1 11.9809 29.5016 2.32723
4446 1 28.1286 7.27792 8.49921
4447 1 -1.5143 17.2417 12.7538
4448 1 10.08 3.88964 23.5365
4449 1 33.1608 12.8236 6.33101
4450 1 29.3224 17.4367 19.4311
4451 1 10.2301 3.1779 12.6666
4452 1 20.7723 29.684 23.7956
4453 1 36.3905 18.2042 -1.72712
4454 1 8.30711 15.4182 19.5716
4455 1 36.4256 7.86378 -2.18887
4456 1 35.7289 19.1126 4.33896
4457 1 29.1277 10.6243 16.3785
4458 1 5.16095 15.7472 17.8444
4459 1 5.44901 0.101049 38.0886
4460 1 23.1327 27.0675 8.6026
4461 1 22.4804 28.4535 15.5088
4462 1 19.1335 35.5022 27.3966
4463 1 -0.105002 7.52634 4.67925
4464 1 30.6068 10.2371 27.1438
4465 1 12.4565 8.13753 1.44222
4466 1 23.2604 9.27106 1.20012
4467 1 7.82576 35.6974 15.6664
4468 1 29.2146 35.8916 1.34764
4469 1 32.1373 36.8112 -2.25475
4470 1 21.4866 18.5292 30.7459
4471 1 19.4193 8.7034 10.6968
4472 1 22.4277 10.8773 23.2894
4473 1 4.1318 22.3587 23.4624
4474 1 29.8586 -0.740082 2.75868
4475 1 27.2206 19.0478 23.0346
4476 1 12.5917 35.0407 19.1443
4477 1 -0.790699 21.4414 9.40064
4478 1 9.34548 31.1928 9.85934
4479 1 14.8398 23.0252 22.9414
4480 1 19.711 16.4622 34.5468
4481 1 37.9006 -1.06829 9.40787
4482 1 6.28353 11.6514 23.7379
4483 1 38.1554 9.54692 35.2148
4484 1 19.9589 21.3184 28.1884
4485 1 21.7666 30.0975 35.2854
4486 1 22.2373 23.5568 36.9595
4487 1 30.3381 3.95458 24.6021
4488 1 34.0534 15.8789 25.8622
4489 1 33.6442 -0.0967954 7.17501
4490 1 15.6621 19.6188 20.5481
4491 1 -2.539 19.658 21.2196
4492 1 2.39538 31.1438 0.61417
4493 1 25.7634 29.9837 12.2578
4494 1 1.40341 28.8274 24.4055
4495 1 24.0373 20.6579 10.2292
4496 1 14.5832 23.3618 7.90958
4497 1 19.8214 27.1559 15.4389
4498 1 28.7962 38.0641 14.826
4499 1 8.32801 20.6043 8.24842
4500 1 6.37608 19.6464 -0.208571
4501 1 -2.64287 29.783 23.1343
4502 1 33.322 31.3127 31.6714
4503 1 36.1387 38.2045 12.0937
4504 1 2.17042 14.7079 11.596
4505 1 3.25918 32.4109 6.79029
4506 1 6.75797 -1.17099 -0.517576
4507 1 23.0018 0.549543 28.0348
4508 1 9.81832 10.6189 2.40929
4509 1 11.0165 17.615 22.0306
4510 1 11.9219 0.697479 5.93714
4511 1 30.4342 26.746 27.3986
4512 1 35.4878 4.09898 4.90745
4513 1 21.3423 8.22329 4.11186
4514 1 26.9814 36.3283 26.7193
4515 1 15.9223 27.1528 15.3143
4516 1 1.87395 33.8117 14.9952
4517 1 22.2255 33.2347 36.555
4518 1 27.996 25.9195 37.9197
4519 1 38.657 33.5886 14.4707
4520 1 32.4155 12.4214 15.4157
4521 1 4.80129 0.718833 35.2741
4522 1 10.2398 28.546 -2.42414
4523 1 1.67865 2.03809 21.5181
4524 1 21.7164 16.6406 9.66809
4525 1 6.517 -1.9364 -1.67578
4526 1 6.98784 34.9622 27.6942
4527 1 37.5745 -0.565851 31.2854
4528 1 34.5186 14.2621 12.807
4529 1 26.489 27.5841 2.47925
4530 1 5.66098 24.4109 24.4285
4531 1 -0.310848 19.6099 23.3755
4532 1 11.1147 37.8583 5.42638
4533 1 11.6831 35.6517 22.3962
4534 1 6.63854 17.7531 25.1254
4535 1 3.88028 4.11513 -0.453002
4536 1 34.7592 35.2657 34.5942
4537 1 35.9894 30.9696 20.5606
4538 1 21.1754 14.3884 6.95548
4539 1 19.5821 2.42244 14.3504
4540 1 8.58344 3.44001 26.4888
4541 1 22.3731 19.7777 10.9243
4542 1 24.5357 10.4362 12.2491
4543 1 27.0279 24.0525 21.2045
4544 1 18.6944 29.4717 14.1046
4545 1 22.3815 22.2268 3.28843
4546 1 22.7254 14.5561 23.2514
4547 1 35.2777 14.7571 -0.183104
4548 1 16.1068 4.74503 36.3285
4549 1 26.1788 12.4496 29.3199
4550 1 29.3786 30.6206 15.6837
4551 1 38.5148 33.2518 32.9065
4552 1 29.0825 2.01347 7.60378
4553 1 5.08172 9.06026 35.0322
4554 1 0.047374 6.87951 25.7498
4555 1 22.744 31.749 23.3097
4556 1 4.0964 35.0992 19.3296
4557 1 17.2799 19.6219 4.81692
4558 1 1.17898 15.7662 24.2471
4559 1 5.52536 0.589848 22.3275
4560 1 12.935 14.758 19.4091
4561 1 25.0797 32.211 21.418
4562 1 27.5676 1.01953 9.54008
4563 1 25.896 18.4099 32.6902
4564 1 22.5939 -0.968839 26.7744
4565 1 30.3362 26.9323 10.0724
4566 1 35.5979 3.90061 24.3888
4567 1 4.90172 19.8429 26.0179
4568 1 28.0239 18.2899 2.00186
4569 1 36.3762 19.7179 23.7751
4570 1 16.5662 33.0788 36.091
4571 1 25.0323 21.0037 28.0307
4572 1 -0.411584 3.37984 10.7276
4573 1 28.0401 24.1655 18.3776
4574 1 27.4353 16.7793 26.1991
4575 1 21.4019 3.5059 -2.05765
4576 1 36.7966 0.434655 17.1305
4577 1 32.5836 8.3203 1.74346
4578 1 31.0593 5.2725 11.1527
4579 1 22.1359 24.2325 3.35316
4580 1 33.2563 -1.80282 25.9638
4581 1 35.9734 5.97668 -2.71031
4582 1 15.1812 19.6821 38.42
4583 1 30.0704 -0.861735 23.2279
4584 1 15.1862 14.3384 14.116
4585 1 15.2105 26.0587 -0.72577
4586 1 19.6255 26.1832 16.2506
4587 1 15.3676 5.53612 33.0432
4588 1 0.680162 33.934 5.88716
4589 1 24.1071 37.3929 25.6956
4590 1 17.3985 36.2191 35.8054
4591 1 13.3234 23.3926 35.0835
4592 1 2.80587 -1.25093 34.1529
4593 1 21.0064 19.1986 8.89472
4594 1 36.5604 30.277 4.44136
4595 1 31.0768 20.2331 13.7377
4596 1 32.031 15.2042 2.56381
4597 1 1.71074 1.78905 17.246
4598 1 36.5652 26.6566 12.0604
4599 1 5.34413 35.1491 7.89794
4600 1 -0.718085 3.83258 36.7825
4601 1 28.766 26.3803 1.38128
4602 1 36.2921 37.0506 26.2765
4603 1 33.5088 17.7853 8.32055
4604 1 6.18672 20.7969 24.7812
4605 1 12.6185 29.8951 18.7214
4606 1 9.58549 9.50375 26.9794
4607 1 -0.338974 8.48419 14.4711
4608 1 25.3206 13.5246 19.8043
4609 1 28.0425 26.8311 4.27443
4610 1 30.475 22.1707 10.4067
4611 1 37.6513 11.6489 14.5553
4612 1 37.8472 32.8134 31.1081
4613 1 36.635 0.657939 33.6328
4614 1 38.3412 16.6497 9.47053
4615 1 0.658757 9.75015 6.31361
4616 1 33.8404 6.05441 28.3411
4617 1 14.5731 13.6261 2.84363
4618 1 0.959849 5.14119 23.3367
4619 1 4.43134 35.6515 33.8617
4620 1 38.1502 18.2019 5.58782
4621 1 36.0919 8.3381 34.1264
4622 1 22.2451 -1.75219 14.2798
4623 1 13.1686 4.79888 35.6806
4624 1 0.115809 24.2653 31.3574
4625 1 9.26271 2.88984 18.7166
4626 1 1.02037 23.2256 21.9353
4627 1 38.5997 30.4358 10.0115
4628 1 4.0998 30.8937 -1.94751
4629 1 24.9856 15.8155 27.8598
4630 1 2.78172 10.8354 10.5527
4631 1 12.7743 18.7291 26.6228
4632 1 23.9036 18.3314 16.0592
4633 1 5.45417 30.0034 21.7266
4634 1 6.63902 6.0408 -2.4241
4635 1 24.0758 12.478 26.9462
4636 1 20.5522 12.6674 22.7992
4637 1 13.6024 0.362334 32.353
4638 1 23.0619 4.93824 -0.19072
4639 1 9.19842 29.7921 9.83436
4640 1 24.3733 31.6751 28.6477
4641 1 12.3713 10.907 1.65479
4642 1 35.5391 8.1852 9.54782
4643 1 0.130079 10.5412 22.8439
4644 1 36.1701 9.09049 -1.79843
4645 1 28.5827 7.11149 22.1587
4646 1 7.04837 20.8062 13.8203
4647 1 37.8819 22.809 3.02609
4648 1 0.0476518 1.07209 6.04512
4649 1 31.795 10.2901 38.3102
4650 1 13.4585 16.5521 1.69915
4651 1 14.6996 30.5107 -2.82816
4652 1 2.76254 15.6363 32.3755
4653 1 9.43956 13.8576 20.135
4654 1 5.82245 24.947 1.72534
4655 1 35.4786 23.7962 20.6226
4656 1 10.9122 21.3685 23.4478
4657 1 13.0698 36.9803 19.3982
4658 1 15.6068 7.85425 5.73798
4659 1 -0.102629 32.154 9.73919
4660 1 2.51485 36.7309 5.27312
4661 1 16.2452 22.1476 18.973
4662 1 14.2446 35.8726 5.31126
4663 1 16.4512 23.4744 16.2767
4664 1 17.1602 10.2947 22.6508
4665 1 0.0249422 16.8125 29.5931
4666 1 4.97515 9.26815 -0.479986
4667 1 18.3269 15.6793 12.0797
4668 1 32.8387 6.67076 29.9866
4669 1 31.5942 28.3435 29.5875
4670 1 8.21873 17.6854 32.6418
4671 1 27.6454 5.27606 4.74914
4672 1 31.0612 35.3069 14.5394
4673 1 18.2938 22.533 24.7608
4674 1 30.0471 22.9304 30.2602
4675 1 23.8808 -2.09813 11.5275
4676 1 1.56289 11.8738 -0.181363
4677 1 4.2182 10.8286 34.6083
4678 1 -1.01458 13.1245 15.631
4679 1 26.2372 8.63794 6.12554
4680 1 9.11518 6.28124 9.8671
4681 1 13.3212 23.7372 27.3893
4682 1 11.1299 32.5179 33.3364
4683 1 23.4416 31.8618 26.1586
4684 1 14.3656 30.1333 -0.227841
4685 1 22.7069 1.38328 10.2576
4686 1 10.8698 33.0301 4.19785
4687 1 3.69807 2.05107 18.4859
4688 1 30.8153 36.9151 0.674953
4689 1 -2.05546 22.7898 21.0581
4690 1 30.6828 8.98564 1.59005
4691 1 10.6436 24.4281 1.34055
4692 1 4.05573 20.1873 14.937
4693 1 32.9262 36.707 5.60569
4694 1 38.1227 16.2957 20.3387
4695 1 31.1935 1.96529 28.962
4696 1 16.5358 9.06867 10.3934
4697 1 8.23415 6.82407 12.6236
4698 1 17.2943 33.7456 8.32896
4699 1 7.3342 11.869 19.895
4700 1 9.11033 19.5635 21.9581
4701 1 20.3692 4.2035 33.222
4702 1 24.1545 28.6112 -2.35844
4703 1 11.3035 2.55018 25.4526
4704 1 30.6625 14.1503 5.55121
4705 1 3.96663 7.80114 27.0072
4706 1 31.0096 2.8829 -0.444972
4707 1 -2.78737 22.8101 22.1822
4708 1 23.1741 28.8345 18.3212
4709 1 2.04962 16.8754 29.6636
4710 1 31.6147 31.7929 13.9498
4711 1 34.1865 33.5997 18.2779
4712 1 28.4628 20.4549 20.8679
4713 1 20.6947 10.8171 13.518
4714 1 35.3779 35.7271 10.4827
4715 1 23.418 16.7642 18.0922
4716 1 20.9166 19.828 27.1951
4717 1 -2.2199 0.490415 27.0178
4718 1 7.8697 22.5776 28.0172
4719 1 18.0169 4.59095 0.765846
4720 1 31.9641 30.5568 2.02456
4721 1 29.765 -0.329001 12.0945
4722 1 -0.415213 26.85 19.4435
4723 1 15.5205 21.0493 11.7689
4724 1 38.4965 1.57352 18.6178
4725 1 5.68179 10.8543 17.8044
4726 1 26.7705 9.90875 14.2382
4727 1 23.0751 20.9374 28.6007
4728 1 1.65513 5.02829 31.4617
4729 1 32.9249 21.5163 2.34894
4730 1 30.5385 16.2647 33.7925
4731 1 28.7908 33.6841 7.62965
4732 1 6.57226 33.8093 10.5935
4733 1 26.7593 15.0155 35.0704
4734 1 26.001 12.3626 1.74153
4735 1 -0.831938 25.7868 28.7539
4736 1 -2.04012 31.5264 -0.280379
4737 1 33.3324 -0.473758 12.1501
4738 1 7.75716 -3.12378 8.07764
4739 1 11.8065 7.21167 18.6525
4740 1 31.275 31.4438 29.1313
4741 1 -1.00597 6.37728 33.7775
4742 1 28.9399 26.0362 20.2451
4743 1 6.55316 6.19795 30.3752
4744 1 29.9539 3.54519 31.3074
4745 1 33.7398 15.1096 13.4658
4746 1 35.597 31.6231 24.8241
4747 1 27.0766 -1.64264 38.0303
4748 1 30.6538 3.92692 20.9963
4749 1 28.8277 37.449 3.7106
4750 1 -0.788151 25.8976 -1.05669
4751 1 8.96973 4.64297 21.1497
4752 1 33.6866 18.7769 -0.842903
4753 1 13.729 17.4435 35.4383
4754 1 -2.63609 37.9587 26.5983
4755 1 29.9243 22.9879 5.26981
4756 1 16.2177 3.34647 34.9396
4757 1 9.09673 14.6241 30.4601
4758 1 31.1313 17.8376 24.6145
4759 1 -3.08573 28.1869 20.3618
4760 1 -1.30197 18.189 36.7188
4761 1 6.1422 3.58982 4.8192
4762 1 4.26225 23.0381 27.3537
4763 1 31.651 22.7012 26.6466
4764 1 30.5493 11.6828 15.4248
4765 1 22.4959 -1.8803 1.59266
4766 1 13.582 1.52156 15.3586
4767 1 36.9808 38.4507 13.1244
4768 1 17.2213 15.1715 21.1447
4769 1 28.0449 12.7983 12.3428
4770 1 3.82819 1.3524 29.9322
4771 1 35.3867 3.73949 21.4618
4772 1 17.1799 -0.603586 7.10694
4773 1 5.9932 16.0881 16.0319
4774 1 27.9504 27.2241 37.7882
4775 1 21.7446 37.7553 -2.98614
4776 1 2.40102 9.97775 31.4222
4777 1 26.0801 16.7059 38.5968
4778 1 16.3666 20.2669 32.2886
4779 1 4.69981 32.2237 24.9273
4780 1 32.7995 28.0072 26.2827
4781 1 28.1532 24.2997 -0.448008
4782 1 34.7153 22.303 0.780891
4783 1 0.735356 4.24502 34.3016
4784 1 -1.2688 30.5325 27.7621
4785 1 36.2603 22.8107 -2.94135
4786 1 7.68455 35.6036 37.4126
4787 1 17.4131 28.5275 -0.34356
4788 1 28.7968 18.269 -0.471925
4789 1 21.221 -1.26767 26.7899
4790 1 25.5164 14.5121 4.0302
4791 1 1.74673 21.7994 24.898
4792 1 26.349 37.3625 22.8029
4793 1 33.3459 7.03485 24.3912
4794 1 9.60584 7.96866 6.51799
4795 1 16.8662 36.0691 0.477368
4796 1 5.51889 32.6425 30.7546
4797 1 8.82878 22.5363 12.5804
4798 1 31.6862 12.912 37.2488
4799 1 29.2061 1.79067 37.8739
4800 1 22.1943 32.4532 8.94077
4801 1 34.0045 20.2544 16.5724
4802 1 5.02507 14.066 26.7373
4803 1 27.0415 27.306 25.191
4804 1 34.1732 24.3673 17.7575
4805 1 28.516 22.5873 31.5223
4806 1 21.2021 15.7944 5.51121
4807 1 34.0405 37.3509 28.5335
4808 1 14.0522 -2.43561 32.071
4809 1 14.6701 7.26267 19.3792
4810 1 24.964 -2.27948 24.7375
4811 1 33.6731 6.5462 10.0109
4812 1 -2.05407 0.662386 24.0986
4813 1 0.689459 12.266 4.74043
4814 1 17.0684 28.5463 13.4326
4815 1 7.43632 28.1134 11.7997
4816 1 10.3358 25.4157 27.86
4817 1 28.6233 35.8572 5.7721
4818 1 36.5809 13.307 11.7267
4819 1 36.3091 30.3598 35.4053
4820 1 6.86153 24.4993 29.9805
4821 1 8.29274 21.743 32.2849
4822 1 29.3458 14.8663 9.59759
4823 1 22.1614 -1.71759 34.0088
4824 1 34.2115 -3.19768 17.7068
4825 1 36.838 26.2168 29.9128
4826 1 37.6523 9.8889 22.9925
4827 1 0.372511 28.6653 31.4238
4828 1 13.5343 29.8149 8.4363
4829 1 38.5616 3.80903 26.8995
4830 1 21.9674 4.08351 1.9225
4831 1 9.37945 34.364 9.10094
4832 1 7.91115 37.9456 17.9286
4833 1 10.1621 23.5313 17.5192
4834 1 18.7863 9.61639 35.0194
4835 1 15.3147 29.5413 0.471841
4836 1 18.7311 5.25329 24.9536
4837 1 31.0214 25.123 18.1777
4838 1 33.0394 4.0377 23.6307
4839 1 7.65507 6.6163 7.86677
4840 1 -1.52304 27.6202 6.32047
4841 1 28.0804 10.2108 14.7102
4842 1 25.2928 23.0045 -2.8889
4843 1 37.1659 3.84851 31.5227
4844 1 33.8753 3.33836 13.1643
4845 1 11.0712 23.3861 33.126
4846 1 8.45965 7.03812 5.15693
4847 1 29.647 16.3411 11.9061
4848 1 -1.1725 25.8531 11.0116
4849 1 17.6054 25.7374 14.1206
4850 1 20.0106 34.1978 13.8855
4851 1 1.60741 21.3083 21.9147
4852 1 28.2722 19.6976 12.7383
4853 1 -1.2986 20.0813 20.7121
4854 1 0.506333 21.7129 5.89415
4855 1 7.28684 19.1659 12.6733
4856 1 -2.38764 32.5905 34.563
4857 1 14.8773 15.5832 5.5631
4858 1 1.15183 4.9925 7.67201
4859 1 13.2507 5.14361 24.5678
4860 1 21.4217 13.5215 24.3936
4861 1 30.7647 25.5949 21.9457
4862 1 38.6449 21.8682 29.5918
4863 1 24.8497 26.9245 4.55676
4864 1 6.07037 28.3463 13.2596
4865 1 8.58215 15.8248 26.0818
4866 1 1.53175 32.8581 19.4395
4867 1 17.7912 25.6422 37.4613
4868 1 27.9825 25.5178 18.5759
4869 1 27.7838 12.5761 8.08051
4870 1 -0.22204 15.4497 0.426129
4871 1 5.48951 27.0192 13.6108
4872 1 22.9199 20.6342 32.4567
4873 1 2.99763 28.2733 21.4559
4874 1 -2.85464 25.5793 20.1324
4875 1 37.324 35.0935 20.0485
4876 1 31.6184 18.1921 7.7361
4877 1 9.80127 22.5546 16.7517
4878 1 7.39246 14.5501 -1.35594
4879 1 35.0767 28.67 1.23792
4880 1 34.3852 4.36164 25.8918
4881 1 21.5787 38.4446 9.88513
4882 1 38.573 27.8708 38.3744
4883 1 19.2713 -2.66062 7.41063
4884 1 9.35076 1.60469 30.6676
4885 1 7.16401 9.48999 17.6453
4886 1 10.4591 1.61494 11.4176
4887 1 8.57041 27.6679 22.8511
4888 1 16.8983 5.61087 36.8247
4889 1 14.1605 32.1613 27.9782
4890 1 27.2297 32.2218 33.2357
4891 1 7.47742 32.4233 24.0036
4892 1 28.6866 9.1028 -0.193726
4893 1 18.8216 38.1572 -0.774759
4894 1 36.0347 28.2826 17.1925
4895 1 20.3182 10.8138 20.1998
4896 1 4.8476 30.2274 34.0526
4897 1 38.443 12.2377 12.8014
4898 1 38.7088 -2.20397 17.1524
4899 1 -0.673401 23.7629 6.37117
4900 1 5.89134 27.6316 25.9399
4901 1 3.58188 25.3292 7.07895
4902 1 35.2087 28.2927 2.79195
4903 1 12.9901 10.0584 22.076
4904 1 25.0321 34.6042 36.4862
4905 1 3.0591 27.1058 -2.46307
4906 1 34.9403 6.39614 37.0859
4907 1 -2.4932 33.5504 18.8638
4908 1 19.6467 1.98552 36.3163
4909 1 9.9581 16.7778 21.7036
4910 1 4.06649 14.8114 -1.50267
4911 1 3.86152 20.1978 3.4914
4912 1 -1.11139 34.0794 5.02898
4913 1 27.8072 17.2949 -0.706621
4914 1 32.7345 2.06063 -1.03359
4915 1 17.1494 16.0201 36.3046
4916 1 28.3576 22.9739 26.0576
4917 1 10.3813 0.233235 35.7307
4918 1 17.4238 31.2037 1.78127
4919 1 4.32157 36.4461 -3.15685
4920 1 28.2318 34.4725 31.9507
4921 1 28.6348 -2.66068 14.1761
4922 1 2.18229 31.4758 10.798
4923 1 21.6087 37.2966 7.62386
4924 1 9.41457 32.6082 29.8264
4925 1 26.5477 36.2732 9.57377
4926 1 14.7957 21.153 -0.596898
4927 1 -2.68597 3.92012 22.3223
4928 1 26.4484 13.783 7.21026
4929 1 16.2056 28.363 8.65802
4930 1 9.37841 9.64657 21.172
4931 1 33.0391 0.653873 18.3873
4932 1 36.2843 20.5395 1.96798
4933 1 22.8547 11.5393 12.3026
4934 1 32.2574 14.0849 20.7318
4935 1 23.543 32.782 6.01724
4936 1 13.117 8.5338 27.7569
4937 1 11.428 27.6478 22.566
4938 1 25.2465 25.6189 9.21528
4939 1 30.6458 3.21606 17.4101
4940 1 16.0709 24.6031 -1.85786
4941 1 -1.98795 35.8139 17.5428
4942 1 10.2775 -1.46446 22.7346
4943 1 14.4813 32.2213 38.0738
4944 1 24.608 7.70053 29.7358
4945 1 -0.940898 34.045 25.4474
4946 1 6.06632 16.9819 -1.02055
4947 1 21.3388 16.3461 26.9206
4948 1 19.4919 21.6876 4.83339
4949 1 25.097 -2.79783 10.077
4950 1 19.8688 7.06973 9.63413
4951 1 9.70119 23.3991 9.25405
4952 1 -2.63553 11.7521 7.46131
4953 1 5.00055 12.4024 31.3355
4954 1 19.1056 8.72072 21.0773
4955 1 6.09631 17.5246 17.8533
4956 1 35.5654 7.67502 16.8049
4957 1 29.2617 29.3434 27.6221
4958 1 35.9472 22.6508 22.1861
4959 1 34.4425 -1.26523 37.6447
4960 1 32.1039 32.7348 5.27199
4961 1 33.6408 16.3285 35.9779
4962 1 14.9927 22.8575 9.83149
4963 1 31.8911 2.08261 11.6245
4964 1 26.9302 32.4067 22.2412
4965 1 8.62 12.978 24.4123
4966 1 1.86524 15.4311 19.9682
4967 1 30.8433 8.82784 -2.53279
4968 1 3.54271 4.96945 36.3388
4969 1 24.0809 6.10332 35.9324
4970 1 3.97697 -1.60842 9.81142
4971 1 5.72057 37.0732 0.528421
4972 1 22.3212 -3.15775 18.0192
4973 1 1.03958 -2.38942 16.3672
4974 1 0.899567 0.917345 8.94226
4975 1 31.5818 36.7913 26.7751
4976 1 17.0271 17.0548 -1.0253
4977 1 20.3557 16.1213 29.7026
4978 1 34.23 27.9918 32.3303
4979 1 -2.62225 3.42206 2.89703
4980 1 15.9042 16.4766 36.3831
4981 1 36.588 23.5826 35.506
4982 1 29.3307 28.0032 21.8674
4983 1 -1.80351 9.9227 29.8246
4984 1 11.5751 25.8615 0.314024
4985 1 16.5517 7.06311 18.7574
4986 1 -0.554972 28.8822 8.79597
4987 1 37.9405 9.4628 28.1368
4988 1 22.9839 6.39541 37.6003
4989 1 4.73213 24.7887 31.1917
4990 1 2.82999 10.774 19.7039
4991 1 24.8343 18.669 30.9751
4992 1 31.1016 4.68944 9.20029
4993 1 35.7998 30.0426 38.3528
4994 1 16.8093 -2.96273 8.92964
4995 1 12.1083 11.8564 21.7684
4996 1 26.4209 0.528683 16.8309
4997 1 11.039 33.8218 11.9434
4998 1 19.3824 36.5811 10.6933
4999 1 23.8017 26.7504 27.1931
5000 1 32.6408 14.6073 28.0866
5001 1 4.52566 34.3868 30.9887
5002 1 26.8969 24.7677 32.7284
5003 1 21.4067 37.837 17.4522
5004 1 3.9524 -1.04629 35.7985
5005 1 5.34071 37.1921 22.9237
5006 1 0.953019 18.5599 21.2512
5007 1 32.5853 18.2983 14.5649
5008 1 -0.353535 23.0773 22.0282
5009 1 35.1532 11.3299 24.3116
5010 1 14.7698 36.9494 2.6559
5011 1 20.9696 27.7369 10.4969
5012 1 1.03588 16.1509 6.08177
5013 1 -1.48168 24.55 34.9665
5014 1 27.6182 24.8451 29.594
5015 1 13.9878 19.377 31.7793
5016 1 25.6384 31.681 28.7545
5017 1 33.5201 0.668887 8.19766
5018 1 15.9049 10.0858 7.31595
5019 1 0.572412 -2.22984 38.2782
5020 1 14.4136 0.104926 6.90703
5021 1 9.61789 28.2704 37.041
5022 1 31.6002 3.47746 12.0351
5023 1 15.3453 32.576 20.0618
5024 1 12.7658 18.7538 20.037
5025 1 9.01729 19.542 25.1978
5026 1 34.6562 26.7392 5.35954
5027 1 25.3821 16.436 18.2134
5028 1 14.8337 15.6205 24.7879
5029 1 5.19593 15.5134 37.5699
5030 1 4.638 -2.92931 30.9042
5031 1 6.97262 22.525 0.302414
5032 1 13.7794 32.1062 1.93902
5033 1 12.4299 33.791 22.1975
5034 1 -2.38792 6.30563 14.7338
5035 1 -2.75908 15.4225 37.6689
5036 1 33.7843 36.6149 29.6587
5037 1 26.2603 22.134 13.979
5038 1 37.822 -2.28322 37.9534
5039 1 8.0085 37.8399 23.8703
5040 1 15.5171 16.7422 30.1904
5041 1 -2.8267 28.86 16.7714
5042 1 3.67385 22.0594 15.6423
5043 1 17.5362 7.49303 15.9184
5044 1 -2.01708 25.9226 30.3956
5045 1 23.0175 10.001 9.49556
5046 1 37.1529 33.8588 15.7994
5047 1 36.682 20.833 14.7582
5048 1 6.73302 0.5254 31.4437
5049 1 32.5391 2.40002 5.44611
5050 1 12.9574 6.55688 20.1539
5051 1 35.4335 35.932 30.6346
5052 1 18.8508 37.3435 34.1544
5053 1 22.7983 -0.960297 10.2983
5054 1 15.1352 31.625 3.37904
5055 1 0.773365 6.82746 31.4943
5056 1 28.0821 5.67306 28.9737
5057 1 20.5916 24.1694 2.07739
5058 1 27.4134 16.1557 29.5503
5059 1 35.448 30.0134 5.03337
5060 1 16.0128 9.29004 33.4536
5061 1 16.8287 12.8887 5.61667
5062 1 29.374 15.8407 21.9998
5063 1 8.23523 10.5393 0.300374
5064 1 27.196 22.7099 1.38754
5065 1 31.3948 -1.35459 23.2232
5066 1 32.6646 37.4541 2.74004
5067 1 0.74286 32.5234 27.2819
5068 1 0.120247 11.5421 2.07999
5069 1 36.9429 20.8537 12.7689
5070 1 0.470641 2.74393 35.5973
5071 1 26.1162 24.3035 16.0544
5072 1 4.46242 13.726 5.25225
5073 1 10.1592 21.8045 18.5705
5074 1 19.3998 24.7071 22.064
5075 1 26.5486 27.7477 19.8114
5076 1 19.2206 8.27166 19.1223
5077 1 32.7768 10.505 15.9585
5078 1 26.7633 30.7004 32.8549
5079 1 11.6943 38.4016 36.9116
5080 1 25.2833 32.6517 23.3908
5081 1 4.16268 8.92578 16.3521
5082 1 2.6588 37.847 36.7882
5083 1 10.8721 6.4141 29.4946
5084 1 27.7744 3.82197 25.6882
5085 1 9.67445 36.0279 0.775854
5086 1 15.2887 25.7222 18.3975
5087 1 8.64617 38.7697 34.4531
5088 1 26.4238 17.5255 15.6679
5089 1 6.45016 23.4445 29.1297
5090 1 -0.9749 22.1474 23.7092
5091 1 16.5938 2.33377 15.7433
5092 1 29.6344 19.0027 37.8126
5093 1 35.9411 20.5823 19.0187
5094 1 33.3937 32.9839 21.8566
5095 1 13.0878 2.11513 5.09617
5096 1 29.2685 20.5545 22.1372
5097 1 2.18107 27.1345 3.47807
5098 1 18.7217 12.5024 18.022
5099 1 12.172 12.795 -0.490673
5100 1 8.6423 16.0571 0.612696
5101 1 6.92646 -2.67683 32.6562
5102 1 19.7215 25.122 2.13754
5103 1 5.02383 21.6051 26.9923
5104 1 20.5223 30.1705 13.6459
5105 1 16.5013 -1.45771 12.3293
5106 1 27.8633 9.95452 19.2799
5107 1 27.8472 36.3709 18.5094
5108 1 25.1865 16.0999 30.8174
5109 1 25.93 -0.200871 37.2185
5110 1 25.2518 28.6102 38.6332
5111 1 -0.211522 36.6274 32.4118
5112 1 27.4572 28.7176 -0.0673282
5113 1 33.2173 13.6914 38.2742
5114 1 5.75609 21.6737 10.1983
5115 1 35.541 6.46966 15.1773
5116 1 11.8974 -1.04709 33.624
5117 1 21.7731 33.0256 38.5011
5118 1 0.8511 36.9195 15.2009
5119 1 18.6545 5.39813 19.8302
5120 1 29.7016 23.8048 15.6108
5121 1 13.6709 15.567 33.4667
5122 1 7.43717 3.09406 25.6651
5123 1 14.6161 4.01924 25.5656
5124 1 29.6473 36.6329 35.2874
5125 1 6.37825 2.20472 33.4477
5126 1 4.88195 33.2836 36.2072
5127 1 34.5124 23.238 6.68369
5128 1 16.2063 33.1625 6.75139
5129 1 32.5538 15.4563 7.18939
5130 1 4.92525 5.22777 25.8103
5131 1 8.78095 20.0056 15.8732
5132 1 25.6387 27.3466 13.572
5133 1 7.20197 12.5159 34.6925
5134 1 29.4825 32.2731 23.8308
5135 1 37.4372 19.6313 34.5688
5136 1 3.05926 -1.64202 15.4287
5137 1 4.02571 33.4551 21.9304
5138 1 1.84639 38.1569 20.4377
5139 1 8.63445 24.6502 -0.851173
5140 1 23.4189 31.5616 33.616
5141 1 17.8624 8.00323 21.4123
5142 1 29.5574 31.617 33.8297
5143 1 13.0331 31.8214 10.5255
5144 1 26.4093 34.3438 -0.0838017
5145 1 17.904 30.567 33.7915
5146 1 32.922 28.4332 8.43518
5147 1 -1.30071 11.1523 -2.9082
5148 1 0.277067 5.7761 17.1657
5149 1 16.37 32.5234 29.788
5150 1 36.2435 29.5033 28.7858
5151 1 26.3256 34.5209 5.97201
5152 1 22.5388 18.8045 3.58528
5153 1 -2.64084 27.083 7.90712
5154 1 13.527 0.17961 3.08487
5155 1 7.5011 1.5074 34.0091
5156 1 22.1903 25.4361 15.6387
5157 1 22.7594 15.9104 10.0751
5158 1 22.8198 10.1884 37.4965
5159 1 2.21482 2.33567 4.38468
5160 1 32.9211 26.8087 23.607
5161 1 14.8955 -0.457588 36.4171
5162 1 25.3343 -0.246466 6.4551
5163 1 6.65267 7.25762 32.9346
5164 1 17.9965 37.5003 20.44
5165 1 16.0124 3.30515 18.7621
5166 1 17.6926 4.97508 7.93031
5167 1 15.9578 26.6187 9.67595
5168 1 17.4191 5.93803 -1.78117
5169 1 10.8477 8.28269 26.0358
5170 1 21.3039 21.3744 7.88983
5171 1 10.9713 30.3657 1.82117
5172 1 4.35981 33.9462 12.0849
5173 1 19.1514 2.4105 23.1309
5174 1 18.7543 10.6688 21.4398
5175 1 10.9573 5.92969 6.68763
5176 1 17.6214 36.0171 15.6029
5177 1 17.7533 21.3618 17.8946
5178 1 9.82969 17.966 -1.23371
5179 1 38.5302 35.7625 31.2756
5180 1 20.5291 5.08015 7.06178
5181 1 7.43805 1.9431 -0.108682
5182 1 -0.381535 13.8255 7.94169
5183 1 37.4887 -0.245306 8.48851
5184 1 22.6932 7.96198 29.1784
5185 1 21.7381 -2.47345 5.56254
5186 1 35.6465 -0.915936 18.0464
5187 1 13.3002 4.10728 10.035
5188 1 21.2517 1.92925 20.0066
5189 1 10.7313 29.792 -1.9756
5190 1 17.0021 6.1528 25.3939
5191 1 -1.07615 8.51537 12.612
5192 1 -2.42635 36.7787 5.3158
5193 1 2.76836 1.52833 36.4338
5194 1 5.54159 -2.66667 5.59735
5195 1 33.8084 9.12035 -0.82981
5196 1 23.7748 23.4165 2.46838
5197 1 19.6176 29.7681 27.8731
5198 1 6.57338 38.5672 31.3817
5199 1 23.8048 26.5138 11.5035
5200 1 -1.85281 37.6081 37.5548
5201 1 15.3691 28.1472 4.06569
5202 1 8.8671 36.0116 11.6631
5203 1 26.2793 9.40429 12.3395
5204 1 34.83 20.8079 15.5555
5205 1 23.7599 28.4372 32.2248
5206 1 20.8942 -2.17953 -0.406218
5207 1 24.8986 8.76194 17.299
5208 1 31.6995 35.7237 3.14644
5209 1 28.4625 14.0637 3.74413
5210 1 37.1953 5.58117 35.4378
5211 1 -0.494785 5.07732 37.2079
5212 1 8.20785 18.9674 -0.653102
5213 1 -2.45503 -1.3194 26.185
5214 1 2.64178 -2.19925 12.5855
5215 1 18.4502 20.7281 15.0297
5216 1 9.37967 17.7116 14.3477
5217 1 7.41021 30.7712 19.7513
5218 1 26.5137 19.9959 23.6881
5219 1 31.3222 19.5051 16.7874
5220 1 26.0775 28.0008 24.5578
5221 1 15.8866 26.5586 32.9985
5222 1 -0.299209 37.4094 -3.0739
5223 1 30.5297 29.1828 3.62914
5224 1 13.534 -3.04702 37.5478
5225 1 35.3389 3.574 29.4615
5226 1 -2.61381 24.5989 23.1146
5227 1 36.1242 30.7758 32.1801
5228 1 2.56609 16.6396 16.1045
5229 1 0.452447 13.3853 31.2491
5230 1 6.49669 9.22059 27.6834
5231 1 37.3584 17.8485 25.0839
5232 1 20.6852 4.3584 17.9422
5233 1 17.6385 0.473885 26.4421
5234 1 28.7848 38.3875 34.8295
5235 1 10.2984 21.488 0.786898
5236 1 28.3657 0.249317 10.3427
5237 1 25.0089 37.7064 27.4569
5238 1 34.455 21.2831 21.861
5239 1 9.63046 37.054 29.385
5240 1 6.08301 25.1926 33.8456
5241 1 34.4661 35.3391 19.287
5242 1 30.5935 17.0379 5.58483
5243 1 17.784 8.9688 25.6089
5244 1 35.1357 0.912415 36.1558
5245 1 20.2503 31.4348 -1.71145
5246 1 20.9337 27.4969 26.5092
5247 1 22.3263 5.80711 11.2596
5248 1 7.83459 34.4285 17.2609
5249 1 2.58285 33.8844 19.9152
5250 1 28.9038 23.136 11.163
5251 1 31.0188 28.3555 12.9158
5252 1 26.0978 20.6347 2.93997
5253 1 -2.93541 -1.07341 4.31787
5254 1 26.6972 37.2539 11.6654
5255 1 -1.82431 26.4005 37.2464
5256 1 1.57245 12.1116 15.554
5257 1 18.9781 29.4485 0.50173
5258 1 6.50532 29.9086 1.64998
5259 1 37.9993 30.8675 8.14431
5260 1 35.7109 17.2605 27.4412
5261 1 26.1177 33.9098 1.85681
5262 1 35.867 33.2719 21.6608
5263 1 30.4153 35.8984 34.5072
5264 1 0.999607 26.4917 34.4908
5265 1 -1.86958 15.2211 30.6129
5266 1 20.1528 15.8479 4.62479
5267 1 18.0334 0.36731 31.7685
5268 1 13.7952 8.45676 1.44656
5269 1 5.60365 18.3965 31.0486
5270 1 24.9913 36.8161 19.5976
5271 1 4.85668 21.6387 33.8405
5272 1 17.7243 34.8466 23.7648
5273 1 -2.31331 33.842 17.4764
5274 1 34.5505 7.09747 34.4009
5275 1 14.2467 14.5291 24.1494
5276 1 -2.10974 9.79968 16.8993
5277 1 -2.10415 36.1458 -1.71884
5278 1 26.8689 15.4736 28.4759
5279 1 37.3299 28.4009 7.5053
5280 1 -2.33488 34.0571 5.98566
5281 1 16.0589 29.864 28.6667
5282 1 17.5914 33.2066 26.1654
5283 1 -1.01306 7.68379 31.0618
5284 1 24.0766 36.1213 6.519
5285 1 27.4083 27.74 27.1164
5286 1 24.0787 37.9602 5.67211
5287 1 37.8568 30.3345 29.6418
5288 1 18.4847 4.71929 33.6151
5289 1 37.4682 14.9504 24.914
5290 1 31.5124 21.6702 22.1908
5291 1 9.27106 27.7866 26.0788
5292 1 3.30512 0.805056 2.55295
5293 1 4.96727 2.0244 26.4012
5294 1 -1.7409 34.3165 32.4119
5295 1 13.1627 -0.225311 16.3786
5296 1 9.94737 24.8666 4.92183
5297 1 15.9702 36.411 8.942
5298 1 16.3722 15.4103 -2.03065
5299 1 18.3635 -0.121636 6.39569
5300 1 38.6307 5.1525 19.489
5301 1 30.6283 26.8595 14.1984
5302 1 -2.92872 35.0873 30.2936
5303 1 21.7384 0.149123 13.8132
5304 1 2.86519 32.0882 17.3068
5305 1 25.3083 1.92944 26.6526
5306 1 34.7923 21.671 31.4433
5307 1 29.9797 6.28514 34.625
5308 1 8.27066 16.3439 29.748
5309 1 20.442 32.188 29.557
5310 1 7.21668 3.56261 10.7945
5311 1 0.1042 -0.49788 22.4753
5312 1 1.39725 6.58235 1.7072
5313 1 22.9695 27.5832 -1.07679
5314 1 20.4501 13.5339 4.11934
5315 1 21.8472 34.4182 2.79139
5316 1 26.6668 2.44115 17.4419
5317 1 -2.04357 0.940938 31.9001
5318 1 33.4581 37.0695 19.6857
5319 1 24.4533 18.8146 25.3759
5320 1 32.9699 -1.23654 5.65896
5321 1 -2.569 24.435 6.27865
5322 1 18.2473 10.2663 6.16795
5323 1 28.1857 -1.558 -3.11319
5324 1 0.764386 -2.61907 -1.64857
5325 1 8.21218 33.1117 6.71153
5326 1 8.26189 30.9702 -1.41625
5327 1 19.3386 22.9045 16.4554
5328 1 12.7759 33.2755 18.1802
5329 1 37.2651 19.4942 9.0784
5330 1 11.3035 16.45 -0.461368
5331 1 10.9396 22.8822 21.2753
5332 1 5.3049 19.471 8.04588
5333 1 10.157 4.18887 25.5372
5334 1 2.00928 9.5215 4.83054
5335 1 6.62784 12.7619 -0.723616
5336 1 21.8936 17.3841 12.4924
5337 1 17.8715 19.0192 23.07
5338 1 3.05959 31.1989 12.6034
5339 1 5.52311 19.9519 34.7206
5340 1 4.2203 3.65634 30.7069
5341 1 -1.5134 16.636 38.6518
5342 1 15.5899 29.4175 14.5046
5343 1 24.2039 24.4534 35.6684
5344 1 31.8476 12.3931 35.2921
5345 1 -2.08722 22.0492 33.9671
5346 1 29.952 19.2555 10.8292
5347 1 14.5395 20.0563 28.2487
5348 1 10.7651 28.0253 7.44293
5349 1 3.59866 4.82682 0.756349
5350 1 5.02858 25.3223 3.53349
5351 1 23.0193 17.4541 38.4621
5352 1 6.02477 8.05696 34.6861
5353 1 17.9756 0.795066 12.3212
5354 1 2.98216 6.48317 32.8862
5355 1 27.2989 0.0753624 29.4914
5356 1 6.41289 25.0077 6.08126
5357 1 16.7596 18.9305 27.3624
5358 1 13.0211 12.02 18.9448
5359 1 16.6071 1.02769 4.67309
5360 1 7.88147 34.817 28.804
5361 1 8.05509 19.8924 17.7417
5362 1 31.4549 6.29336 3.53888
5363 1 30.1779 1.85601 9.30577
5364 1 30.7159 28.848 -0.963647
5365 1 27.8372 14.1477 -3.06945
5366 1 7.99969 17.1328 26.4561
5367 1 -2.26712 37.046 6.6736
5368 1 34.9085 24.8722 28.2028
5369 1 38.1337 37.3372 26.985
5370 1 17.1428 12.6209 4.26859
5371 1 26.4414 29.7421 19.5989
5372 1 19.5238 13.5315 34.7302
5373 1 36.3806 25.2659 15.6409
5374 1 27.6591 -2.09975 22.2562
5375 1 -0.523354 13.6648 22.987
5376 1 19.0722 19.5087 37.3404
5377 1 15.6549 15.4775 27.785
5378 1 10.3599 30.0158 7.56961
5379 1 10.9243 20.9611 31.8608
5380 1 28.6097 18.8163 17.0721
5381 1 28.7859 32.2847 28.6784
5382 1 6.30504 -2.80728 36.3021
5383 1 28.8781 30.3971 23.5004
5384 1 16.7232 15.2119 9.12174
5385 1 27.6678 15.7917 31.5115
5386 1 24.2728 19.2003 19.735
5387 1 -0.748075 1.95283 13.7209
5388 1 24.323 30.8525 21.2968
5389 1 7.02217 11.7704 29.0032
5390 1 10.1285 7.06204 26.236
5391 1 29.9943 16.0089 3.23422
5392 1 21.8291 37.8414 29.4526
5393 1 16.5597 19.8833 6.07983
5394 1 0.257226 7.37557 21.5228
5395 1 36.2285 3.67088 14.24
5396 1 32.2973 9.84172 17.0983
5397 1 1.08149 8.5819 19.4466
5398 1 36.2753 1.8272 29.5653
5399 1 17.858 31.2803 13.8081
5400 1 3.36003 11.0073 24.3247
5401 1 1.65508 3.07371 7.0829
5402 1 29.3474 11.6408 -2.96618
5403 1 18.5115 20.0301 3.23777
5404 1 14.6275 22.3699 31.363
5405 1 32.6023 17.0666 28.5028
5406 1 21.5289 2.43035 11.5556
5407 1 13.6852 13.1734 15.6536
5408 1 28.5626 29.9701 11.4412
5409 1 19.1338 17.4856 28.9187
5410 1 -2.99552 8.12077 -1.16555
5411 1 29.5715 4.62415 13.7473
5412 1 10.3307 27.9848 16.2811
5413 1 10.7306 29.7094 37.8681
5414 1 -0.818059 37.0631 3.60447
5415 1 33.7194 32.0994 4.25817
5416 1 17.9664 -2.41832 17.3191
5417 1 -2.9649 12.3022 35.6218
5418 1 37.9945 17.6203 0.580928
5419 1 13.7936 32.4456 31.561
5420 1 35.6244 0.0322671 1.15188
5421 1 18.7441 19.7795 33.8095
5422 1 10.2698 -0.953214 27.3171
5423 1 32.4792 34.1043 20.4677
5424 1 23.8154 29.4488 6.25138
5425 1 2.34872 9.47994 14.6859
5426 1 3.59448 27.6927 11.8327
5427 1 29.9565 20.7707 13.0997
5428 1 21.0701 24.6437 0.180161
5429 1 28.1362 29.855 10.0761
5430 1 15.1038 3.77443 22.3431
5431 1 32.0191 6.63945 19.6594
5432 1 7.37438 9.40044 4.93288
5433 1 -2.87381 38.4063 35.0723
5434 1 13.7226 29.7041 36.8441
5435 1 29.4694 19.8783 4.46317
5436 1 24.8108 3.96433 3.8677
5437 1 11.748 2.38807 30.9811
5438 1 -2.05808 26.5422 25.1765
5439 1 12.5939 15.7332 2.22745
5440 1 29.4105 17.528 27.9625
5441 1 10.9808 26.3631 34.6584
5442 1 -2.83856 27.3277 2.35315
5443 1 37.6136 10.7478 4.3444
5444 1 5.23362 8.65308 1.43066
5445 1 21.1598 0.343608 24.6137
5446 1 5.06809 11.5425 21.219
5447 1 31.337 38.5882 23.4275
5448 1 32.8537 10.7777 25.6962
5449 1 0.93772 36.6096 21.3737
5450 1 6.33568 36.4598 26.5194
5451 1 34.9232 30.1247 -2.40997
5452 1 26.5158 20.8857 20.4649
5453 1 30.3466 22.2449 22.1292
5454 1 33.5404 34.8111 5.28699
5455 1 6.89625 37.821 34.0866
5456 1 28.3054 15.3583 -0.672098
5457 1 -1.35368 4.60786 20.0492
5458 1 34.2976 8.05997 15.2735
5459 1 34.2007 10.9811 2.89627
5460 1 22.6797 30.7629 1.806
5461 1 36.2736 22.0483 26.0718
5462 1 25.2869 22.9177 34.9891
5463 1 33.9501 18.5427 2.44375
5464 1 0.203122 22.9767 38.4607
5465 1 37.5289 38.6528 20.9593
5466 1 12.9228 6.08571 6.2962
5467 1 33.7875 23.0351 33.4158
5468 1 4.12637 37.5777 28.4978
5469 1 4.21803 12.1158 13.0319
5470 1 2.80656 3.89356 14.7558
5471 1 21.3029 38.4764 11.8538
5472 1 19.9504 18.4617 28.3149
5473 1 3.85316 -0.0965148 5.22246
5474 1 25.2904 12.0223 3.56837
5475 1 2.45119 21.6983 29.4549
5476 1 6.02698 19.7686 12.398
5477 1 17.1153 29.2567 24.3255
5478 1 14.8968 25.6683 12.2603
5479 1 17.3809 18.5567 8.45212
5480 1 36.0804 -0.360368 9.93953
5481 1 19.6784 -3.09455 9.32712
5482 1 -3.00872 4.90881 31.132
5483 1 37.6497 19.8009 27.8076
5484 1 5.75632 2.31691 0.9495
5485 1 33.7001 28.6902 21.9619
5486 1 18.6203 18.2424 4.1954
5487 1 5.95884 1.89832 20.135
5488 1 5.85601 36.3227 11.6767
5489 1 11.7616 18.007 10.1325
5490 1 38.1902 -2.37216 28.8059
5491 1 25.7023 1.42834 25.4576
5492 1 33.4881 27.4166 -1.16623
5493 1 32.1229 22.5715 2.77275
5494 1 9.47238 12.399 3.85625
5495 1 28.7761 16.5423 13.7274
5496 1 35.5428 34.329 38.5713
5497 1 29.9399 32.8971 9.128
5498 1 29.9952 0.750025 26.8189
5499 1 35.7513 23.4897 9.55227
5500 1 10.9119 32.6219 6.73284
5501 1 35.1639 6.98597 23.477
5502 1 31.561 31.415 -2.5129
5503 1 38.2744 6.42104 25.4644
5504 1 12.2552 22.6721 15.1993
5505 1 16.4861 30.721 -1.91596
5506 1 12.2868 -2.10647 32.9773
5507 1 20.4662 15.2079 23.8155
5508 1 23.2267 1.30527 37.925
5509 1 9.15577 12.4763 20.4521
5510 1 29.8817 11.2144 12.54
5511 1 27.057 30.5034 37.0126
5512 1 38.4389 13.4676 1.59969
5513 1 33.5965 22.3568 31.5228
5514 1 18.3865 6.32715 -2.67037
5515 1 4.66258 -2.94853 17.3133
5516 1 -1.65826 11.5316 21.145
5517 1 37.8141 2.85735 19.9959
5518 1 3.46089 15.146 4.24356
5519 1 6.08446 37.8774 37.0429
5520 1 32.3742 20.9258 5.17128
5521 1 35.1856 5.56101 28.9769
5522 1 13.1569 -2.36227 6.6835
5523 1 13.2482 14.2806 33.5818
5524 1 35.7582 6.815 4.47921
5525 1 -2.49672 11.6052 -0.356397
5526 1 6.40373 22.5017 12.9833
5527 1 7.39933 25.6653 21.9198
5528 1 10.2723 38.4614 3.68271
5529 1 26.6793 32.5608 27.294
5530 1 34.6669 36.3928 1.35168
5531 1 14.3352 24.4855 29.5417
5532 1 36.4863 0.81348 7.10722
5533 1 0.932123 28.9807 11.2416
5534 1 6.29485 12.9996 -2.13165
5535 1 3.32857 6.92547 34.2236
5536 1 -2.11908 11.6879 32.0217
5537 1 36.1961 33.103 26.0214
5538 1 0.765343 2.26971 30.4232
5539 1 0.424417 6.35368 4.50825
5540 1 28.1342 15.4259 32.7022
5541 1 19.5335 18.8296 36.139
5542 1 10.7538 27.4324 35.6004
5543 1 13.1921 22.4553 24.5738
5544 1 37.1208 32.9567 27.7956
5545 1 18.8003 6.8096 35.7256
5546 1 21.9089 33.6344 33.0106
5547 1 28.7426 29.859 34.4063
5548 1 10.278 38.4352 6.60026
5549 1 17.1151 25.5905 10.9571
5550 1 34.8581 33.5448 -2.37334
5551 1 18.5653 29.2298 27.0898
5552 1 10.5206 1.83378 18.6884
5553 1 -2.65199 26.6188 31.5015
5554 1 28.8587 20.6775 3.50347
5555 1 9.20396 36.0358 32.8254
5556 1 12.0563 2.64157 16.0567
5557 1 13.9182 21.9635 25.732
5558 1 4.6341 11.0986 26.5468
5559 1 26.1676 -0.638583 32.4632
5560 1 32.6741 9.58899 21.7837
5561 1 32.5033 19.1441 17.2994
5562 1 0.841309 17.9739 23.1852
5563 1 32.5677 5.03813 26.4117
5564 1 33.2579 26.7105 28.8787
5565 1 10.0969 4.56765 1.62739
5566 1 33.1983 32.4405 -2.03267
5567 1 17.3189 8.0044 3.2355
5568 1 26.2839 7.27729 27.3274
5569 1 6.81788 4.99497 6.95042
5570 1 3.29694 -2.01054 38.184
5571 1 21.0014 34.9888 29.7284
5572 1 18.7127 10.353 -1.5753
5573 1 3.79949 8.13943 37.6589
5574 1 19.9389 8.96206 18.154
5575 1 25.416 2.99234 37.1488
5576 1 0.725896 15.5321 38.5901
5577 1 5.34625 22.3 31.9954
5578 1 13.2611 21.8903 9.44783
5579 1 2.72139 -0.355468 37.2309
5580 1 17.095 1.24939 14.9381
5581 1 3.9138 30.6859 7.63821
5582 1 -2.67983 34.2745 26.408
5583 1 12.0497 28.3076 0.715812
5584 1 33.8717 6.80111 35.4417
5585 1 15.5731 25.9502 21.4325
5586 1 31.7122 28.0444 18.6334
5587 1 28.7274 30.801 38.1093
5588 1 -2.72686 37.4325 24.2385
5589 1 8.64623 5.11737 34.9364
5590 1 15.9436 14.2311 -1.46311
5591 1 5.22877 13.344 22.1696
5592 1 3.01335 29.8904 26.9461
5593 1 1.63824 8.23008 16.8712
5594 1 15.5206 38.2847 13.1044
5595 1 14.0932 28.091 24.6578
5596 1 4.58078 1.35781 16.7994
5597 1 7.89592 0.0503058 9.04877
5598 1 14.7805 7.17464 14.6334
5599 1 10.8189 32.4612 27.3301
5600 1 8.32443 21.5286 36.074
5601 1 13.1648 24.0035 5.39123
5602 1 30.9713 34.5735 35.9061
5603 1 14.2018 1.78282 -2.80227
5604 1 28.0835 9.10412 -2.12907
5605 1 25.1138 31.4979 11.1031
5606 1 22.9387 20.4783 20.5735
5607 1 11.4969 33.1147 10.1019
5608 1 33.0483 -2.33017 -1.79528
5609 1 25.8092 27.4722 9.7818
5610 1 35.9114 19.1307 25.6799
5611 1 22.2595 27.6363 26.218
5612 1 33.4309 23.1291 -1.04959
5613 1 37.5261 22.992 38.3475
5614 1 24.9065 7.78375 33.7333
5615 1 4.57568 20.3522 13.6503
5616 1 10.9647 12.4554 24.414
5617 1 35.3054 22.3026 11.1399
5618 1 6.86547 17.4662 21.1497
5619 1 24.2365 24.1707 14.6259
5620 1 -0.917242 3.08763 31.2571
5621 1 36.1126 15.0258 5.03148
5622 1 18.8916 30.3018 9.91383
5623 1 31.4533 15.6491 29.3398
5624 1 36.4351 1.78932 13.6623
5625 1 31.2092 -0.00800357 20.6077
5626 1 12.1605 13.8086 18.6345
5627 1 22.5887 7.23059 8.52197
5628 1 19.398 13.5643 13.8777
5629 1 12.5059 24.324 24.5525
5630 1 27.8634 29.5971 5.20305
5631 1 29.4841 9.25722 12.447
5632 1 33.3107 37.2311 35.6491
5633 1 26.1391 7.60982 0.722654
5634 1 38.414 25.3798 -0.360428
5635 1 18.59 -1.13694 23.9345
5636 1 8.67167 29.2022 14.4165
5637 1 6.30076 29.6394 7.01118
5638 1 33.6114 0.397948 27.8677
5639 1 21.2888 26.5531 36.3731
5640 1 4.20777 6.47844 13.4148
5641 1 20.7247 13.2692 5.3335
5642 1 3.2154 24.0913 28.7349
5643 1 11.9657 -0.590024 9.65223
5644 1 3.17398 33.09 33.3033
5645 1 22.1047 30.3678 28.6239
5646 1 33.5466 3.21117 20.8314
5647 1 8.26611e-04 26.1024 30.5676
5648 1 22.1241 38.5024 28.2995
5649 1 32.761 7.55739 -0.109459
5650 1 21.1164 9.18171 30.7788
5651 1 35.0799 31.0501 8.51379
5652 1 37.894 3.09396 3.24642
5653 1 25.2255 9.95079 35.5068
5654 1 15.0327 12.6863 24.3546
5655 1 32.5769 20.7994 0.49978
5656 1 15.4999 -1.115 14.6807
5657 1 4.70327 13.987 33.812
5658 1 31.3875 5.7433 26.7648
5659 1 32.6161 35.7523 21.6015
5660 1 26.1952 19.7866 25.6469
5661 1 23.4835 15.9445 37.2192
5662 1 18.3485 19.0825 10.1604
5663 1 15.8149 35.5692 26.6157
5664 1 10.3234 35.44 36.3352
5665 1 4.98862 20.3459 19.0064
5666 1 32.8066 14.3742 1.90829
5667 1 0.942128 13.0251 -1.67304
5668 1 11.8624 30.4787 15.1324
5669 1 6.23562 32.3478 -0.00128629
5670 1 32.2249 1.07742 29.1635
5671 1 13.0598 27.6231 21.3233
5672 1 14.6363 29.3378 26.1443
5673 1 18.6842 3.51709 28.8605
5674 1 14.4273 31.6181 8.35085
5675 1 9.4216 -0.400394 14.3019
5676 1 24.7034 30.3215 15.1095
5677 1 8.04353 33.515 31.0287
5678 1 17.398 16.8395 -3.00547
5679 1 24.23 25.7677 7.49601
5680 1 3.1352 25.062 35.978
5681 1 21.8359 22.4391 6.27091
5682 1 14.8395 26.0854 27.4678
5683 1 22.8723 21.8383 23.2477
5684 1 0.589972 12.671 30.2087
5685 1 10.047 18.5021 9.20745
5686 1 16.601 31.9158 6.15502
5687 1 2.4236 35.2987 23.3787
5688 1 5.84488 18.5444 5.25818
5689 1 -2.37866 25.8274 7.70562
5690 1 20.7731 8.11039 26.2867
5691 1 14.2695 16.1691 35.2502
5692 1 23.4417 15.4246 0.951522
5693 1 2.2481 9.42034 16.6978
5694 1 7.25068 17.6746 16.2216
5695 1 6.62345 3.9712 23.2852
5696 1 -1.08043 15.8642 16.7453
5697 1 27.202 11.5444 37.0323
5698 1 13.4737 30.137 -2.52421
5699 1 17.02 30.7317 7.72426
5700 1 28.4683 29.0076 23.3678
5701 1 25.1206 31.6586 -3.00786
5702 1 24.1349 19.5586 -1.41294
5703 1 15.4841 8.44328 2.51019
5704 1 6.40195 -1.27623 33.9902
5705 1 36.5183 16.2967 12.5944
5706 1 0.28653 9.31061 11.3785
5707 1 29.4577 8.00977 31.3123
5708 1 25.5555 10.9986 5.69186
5709 1 25.7954 3.54816 15.1669
5710 1 26.8598 16.7978 13.1685
5711 1 -0.516627 36.7789 28.0069
5712 1 5.48694 32.0318 33.4402
5713 1 14.4784 10.0559 20.7171
5714 1 30.8291 30.7875 -1.56523
5715 1 21.3424 0.657734 38.2856
5716 1 9.2356 24.5279 6.77117
5717 1 30.5416 16.6163 24.6684
5718 1 35.5206 36.1814 22.1977
5719 1 4.71714 29.0591 23.3512
5720 1 5.18685 7.14602 12.8497
5721 1 9.74513 21.9295 29.3205
5722 1 17.9651 2.36213 25.8724
5723 1 33.1716 26.2793 34.8105
5724 1 19.9528 37.5165 -0.136275
5725 1 14.7978 15.6109 0.53848
5726 1 29.3866 27.4411 27.0135
5727 1 35.5163 31.7927 23.4714
5728 1 14.7283 37.904 28.1399
5729 1 31.7681 22.5125 11.9004
5730 1 32.0872 22.7371 -0.708049
5731 1 14.8901 36.1086 0.220058
5732 1 20.6454 29.8834 16.5775
5733 1 10.6684 16.2944 18.576
5734 1 22.3825 37.4784 20.7469
5735 1 4.83031 28.9265 18.8175
5736 1 22.4542 14.7231 32.3264
5737 1 29.4605 2.11292 0.572708
5738 1 12.1025 29.3563 21.7325
5739 1 34.1527 20.6978 9.37535
5740 1 35.2108 34.5846 29.1206
5741 1 0.474694 33.8566 1.02616
5742 1 -1.35326 6.53493 9.2972
5743 1 -1.27746 2.71956 7.97653
5744 1 21.5982 16.1624 29.9154
5745 1 37.6179 19.8146 -1.57176
5746 1 34.7911 30.7323 36.7435
5747 1 38.586 3.15678 24.0967
5748 1 -0.0926135 32.6981 28.4188
5749 1 12.0123 26.7091 19.8708
5750 1 35.9427 27.6878 20.6703
5751 1 38.1906 7.48066 30.8615
5752 1 29.7369 5.48804 27.8236
5753 1 11.4919 29.635 27.4035
5754 1 9.09865 37.6042 36.0092
5755 1 20.5073 12.6795 15.2913
5756 1 25.0364 33.7146 18.2544
5757 1 7.78047 13.3332 33.5701
5758 1 24.4129 34.6832 3.76499
5759 1 0.287391 2.72755 19.1405
5760 1 34.464 31.8132 27.6124
5761 1 19.0175 18.6183 1.85831
5762 1 10.5908 38.484 9.89696
5763 1 33.1689 26.0176 4.25826
5764 1 28.4861 36.0645 17.3739
5765 1 32.1778 24.413 4.94046
5766 1 37.2624 36.7421 15.5069
5767 1 28.7741 -1.30847 19.6665
5768 1 2.49505 4.9389 7.32961
5769 1 28.6193 22.6501 3.77696
5770 1 37.5417 7.66275 4.84793
5771 1 37.5064 32.5113 10.9725
5772 1 -2.381 14.6513 17.704
5773 1 9.63076 3.1728 37.7788
5774 1 3.65463 4.66767 25.6951
5775 1 -1.48626 29.4866 7.10674
5776 1 21.1677 22.8055 15.615
5777 1 11.7697 15.6646 11.8773
5778 1 13.6773 5.35234 9.47577
5779 1 31.9485 1.54041 37.2507
5780 1 22.1172 25.6976 9.614
5781 1 6.3151 3.47508 21.3412
5782 1 9.71743 18.84 17.2506
5783 1 8.02437 0.529109 19.5084
5784 1 21.6345 19.1386 -1.69459
5785 1 2.08875 36.8179 -1.28107
5786 1 27.8121 15.3465 19.44
5787 1 30.0581 2.97332 19.3137
5788 1 7.65825 9.91063 20.1777
5789 1 3.17028 20.9958 36.2259
5790 1 9.51837 2.73652 22.9939
5791 1 19.7209 -2.5096 38.4738
5792 1 24.9036 15.0355 21.1075
5793 1 29.8128 38.1463 7.51926
5794 1 0.0613556 5.43896 12.7543
5795 1 13.0785 35.1584 5.58364
5796 1 24.9507 1.08188 34.0013
5797 1 32.2507 32.955 6.58094
5798 1 22.7747 5.83892 -1.24651
5799 1 27.6174 6.55026 26.0136
5800 1 30.686 9.19673 21.754
5801 1 8.06189 7.95864 24.689
5802 1 26.1718 23.5029 17.8994
5803 1 16.906 -1.5118 10.3429
5804 1 13.8645 19.75 37.8923
5805 1 15.6861 37.1204 -2.00358
5806 1 21.6542 33.1418 3.45175
5807 1 20.8831 30.4273 25.6629
5808 1 34.2762 25.3282 22.0198
5809 1 35.5519 22.7206 29.8977
5810 1 -2.81743 21.6522 19.5747
5811 1 29.2038 29.8313 26.3959
5812 1 1.65893 29.6368 36.6263
5813 1 22.7675 6.69262 6.6029
5814 1 3.11926 14.2892 30.2634
5815 1 31.8526 38.2686 19.9824
5816 1 11.3083 32.9894 25.4604
5817 1 -2.0176 20.8195 1.23775
5818 1 19.8888 19.6669 31.1276
5819 1 24.7132 29.0767 33.8745
5820 1 -1.61593 19.8406 31.1792
5821 1 15.7271 8.12917 27.0835
5822 1 4.1918 16.8009 11.6546
5823 1 26.9322 27.6764 32.5703
5824 1 22.5521 35.7738 23.7977
5825 1 10.9333 35.6203 -0.738293
5826 1 -0.305924 19.825 33.8809
5827 1 35.691 20.8977 33.0603
5828 1 24.3729 -0.519009 19.0149
5829 1 1.30787 32.0239 1.03141
5830 1 19.1733 35.148 14.6254
5831 1 2.01164 3.89306 28.8752
5832 1 -1.2806 14.1857 19.3431
5833 1 23.5441 13.781 29.7836
5834 1 12.9905 24.5686 2.5986
5835 1 10.1451 7.12618 -3.0101
5836 1 28.1957 9.16193 32.3807
5837 1 27.6146 37.5745 20.1165
5838 1 31.6535 15.1031 34.95
5839 1 10.1562 6.21826 12.5028
5840 1 27.1502 -0.857917 35.2937
5841 1 33.5137 21.7534 38.4432
5842 1 30.9423 37.9828 9.18409
5843 1 3.85931 28.5865 34.5393
5844 1 20.7375 2.77695 12.761
5845 1 34.7358 6.54394 5.22521
5846 1 4.10558 37.8377 8.15161
5847 1 21.8718 12.731 36.112
5848 1 17.1116 14.9349 19.1331
5849 1 22.8459 29.9909 25.7187
5850 1 9.78639 15.5051 -3.01205
5851 1 8.30572 36.8795 19.5908
5852 1 29.7023 5.459 1.51429
5853 1 7.55715 -1.33163 28.3611
5854 1 13.7981 -1.16004 36.9192
5855 1 11.4654 11.271 19.9623
5856 1 28.1485 21.5055 13.7071
5857 1 10.3981 8.69115 19.7508
5858 1 20.92 6.56283 5.76032
5859 1 37.6965 1.50353 33.3111
5860 1 13.1061 25.7429 16.4956
5861 1 8.41735 21.7088 23.8898
5862 1 15.3899 35.4631 20.3565
5863 1 14.0545 15.6222 -0.668345
5864 1 18.3492 11.1131 30.807
5865 1 8.35341 12.258 10.7572
5866 1 25.3306 28.3603 7.01226
5867 1 8.36234 0.80539 25.1191
5868 1 24.0169 0.630365 10.4534
5869 1 1.6572 30.4506 25.5726
5870 1 7.95787 1.49847 23.2696
5871 1 14.22 25.1992 2.16347
5872 1 12.493 12.9183 32.2765
5873 1 11.9186 3.75323 32.4481
5874 1 18.4745 27.4177 27.96
5875 1 38.5941 17.2846 15.0965
5876 1 12.2019 24.0134 26.9475
5877 1 25.304 17.3739 2.7887
5878 1 17.1278 10.1489 27.477
5879 1 27.2562 24.6458 26.3087
5880 1 12.6485 -0.717722 4.66212
5881 1 27.9538 17.3732 19.3657
5882 1 22.677 36.321 17.7146
5883 1 17.2731 37.7875 6.64332
5884 1 10.8954 11.3484 23.2882
5885 1 -2.02434 19.9165 3.04914
5886 1 37.036 18.2043 9.27167
5887 1 -3.05768 16.0543 21.563
5888 1 29.704 19.8841 0.378917
5889 1 7.89873 23.4398 19.1976
5890 1 5.70455 16.681 36.8937
5891 1 26.1506 13.5421 32.7827
5892 1 36.0837 9.49943 1.28309
5893 1 31.7159 31.9541 37.424
5894 1 11.9932 35.3482 29.2196
5895 1 21.4714 31.0663 15.1706
5896 1 38.6229 21.9856 35.6367
5897 1 28.9234 5.15296 23.7507
5898 1 28.4622 32.2107 5.13203
5899 1 9.85582 16.8386 -2.88363
5900 1 6.70626 9.21652 7.71951
5901 1 -2.96626 32.2587 26.3795
5902 1 12.6916 29.28 37.692
5903 1 19.2316 10.825 8.75228
5904 1 28.2267 3.3641 32.3408
5905 1 12.5472 25.7315 25.978
5906 1 29.9528 29.5615 7.35662
5907 1 28.6592 2.63477 33.3732
5908 1 16.6027 8.88383 8.78135
5909 1 19.5748 31.9057 7.4199
5910 1 15.1031 -1.39823 20.2326
5911 1 -0.362802 35.6961 35.5178
5912 1 10.2643 0.113269 33.3728
5913 1 0.848943 16.3527 -2.23958
5914 1 -0.342088 27.3987 -2.30004
5915 1 27.4841 6.52646 10.9559
5916 1 26.0379 26.1845 31.5593
5917 1 16.8642 0.802062 20.6503
5918 1 19.7582 24.4763 38.2071
5919 1 5.42195 25.0755 9.96749
5920 1 34.4017 30.4745 6.71693
5921 1 7.30903 8.41138 16.5732
5922 1 23.3679 7.26172 28.1566
5923 1 12.2222 4.34165 0.148269
5924 1 32.1445 23.7994 28.2506
5925 1 38.4976 9.05721 2.0508
5926 1 28.0192 13.4695 35.0302
5927 1 2.9723 0.00689018 26.503
5928 1 9.25011 27.789 9.61095
5929 1 31.0368 25.3849 25.0199
5930 1 -3.19835 17.7683 30.2833
5931 1 32.2674 4.96066 16.4902
5932 1 25.3508 1.8122 -0.362119
5933 1 20.6682 10.7344 25.9975
5934 1 22.5932 5.03688 35.1262
5935 1 13.1641 8.33193 4.37033
5936 1 0.706546 13.9354 19.2435
5937 1 33.7733 4.62363 -2.21874
5938 1 3.73177 19.2419 21.5398
5939 1 19.8273 24.7706 12.4255
5940 1 28.7709 32.0128 18.1862
5941 1 4.11697 28.8956 30.2493
5942 1 1.10748 31.0762 22.1519
5943 1 3.32448 17.2464 8.8616
5944 1 20.6724 15.8366 18.7619
5945 1 14.3769 7.55879 16.3447
5946 1 31.0252 18.7226 6.56864
5947 1 37.5812 11.3177 34.4564
5948 1 16.923 38.6269 31.9958
5949 1 37.31 26.0627 33.7334
5950 1 10.3267 8.38492 34.7485
5951 1 -0.756607 16.6684 20.9597
5952 1 32.6713 25.5859 13.6642
5953 1 27.2916 31.8993 25.4719
5954 1 6.42867 1.41112 25.18
5955 1 17.4028 21.2827 33.7033
5956 1 16.1121 7.89996 25.8604
5957 1 23.6238 0.793807 35.4912
5958 1 15.2439 27.0403 7.46066
5959 1 33.199 -0.87614 19.675
5960 1 8.95781 1.79188 8.84504
5961 1 37.0544 18.9824 19.5738
5962 1 11.1373 11.0458 24.7483
5963 1 31.7852 2.39392 14.6418
5964 1 23.7399 22.408 27.3688
5965 1 15.0211 11.2741 8.69892
5966 1 0.172632 18.1206 31.8421
5967 1 35.7267 -2.92878 20.1462
5968 1 -1.38745 24.3576 8.66049
5969 1 14.5339 20.7269 34.3283
5970 1 35.4212 7.29104 10.6163
5971 1 31.6878 19.1589 35.3942
5972 1 7.44162 30.0285 28.3473
5973 1 7.1579 27.1363 28.4873
5974 1 13.4342 19.2222 14.076
5975 1 5.04793 -1.87937 29.8675
5976 1 4.65966 5.38049 10.8469
5977 1 -2.74744 21.2749 23.4857
5978 1 6.18942 -1.02066 15.7213
5979 1 -0.558022 6.55506 26.9373
5980 1 11.4484 22.7336 6.76517
5981 1 6.07517 10.7134 28.9778
5982 1 3.27585 28.2313 24.5235
5983 1 8.78693 6.11042 25.0435
5984 1 5.80138 15.5504 23.5863
5985 1 11.3114 1.27921 21.3849
5986 1 32.4422 -3.2047 37.329
5987 1 -1.11538 16.3066 -1.95158
5988 1 0.0710959 33.6355 22.3291
5989 1 30.1538 4.918 5.89234
5990 1 22.1284 7.76004 11.7973
5991 1 16.2481 24.4001 35.3036
5992 1 1.48992 38.6784 19.2102
5993 1 11.7297 29.9164 20.5339
5994 1 17.2722 25.3916 6.24958
5995 1 16.5815 31.8347 32.9776
5996 1 37.4463 6.52124 18.5715
5997 1 14.2145 26.829 34.061
5998 1 19.0263 37.9694 38.1678
5999 1 35.4933 9.40514 19.703
6000 1 15.8079 32.5523 18.6378
6001 1 17.9625 16.1146 17.7649
6002 1 31.7651 -1.82149 -2.14552
6003 1 30.7147 36.6659 10.6747
6004 1 1.96383 29.2478 38.5859
6005 1 1.45506 25.2801 17.2294
6006 1 25.3567 5.51266 12.6306
6007 1 37.3294 38.4223 17.8857
6008 1 4.18187 37.6495 23.0556
6009 1 2.2279 20.0506 30.6322
6010 1 14.7704 9.63211 30.2845
6011 1 5.58275 9.1208 12.8739
6012 1 9.06285 27.5982 28.0331
6013 1 9.43796 1.98172 27.5724
6014 1 3.12879 22.6694 6.1089
6015 1 12.3011 31.3089 12.3172
6016 1 -1.18782 8.79015 24.7747
6017 1 29.5531 17.5863 31.1203
6018 1 14.0518 37.9226 11.7479
6019 1 -0.846817 28.7006 17.115
6020 1 7.39417 35.9333 30.3766
6021 1 15.7895 -2.95624 -2.84182
6022 1 -1.73126 28.1346 13.1158
6023 1 15.6226 34.7929 7.79842
6024 1 26.8712 4.11483 31.0749
6025 1 37.9029 28.7749 4.24
6026 1 3.29093 -1.28435 -2.46288
6027 1 29.1819 4.64004 36.956
6028 1 29.5243 35.3973 15.8274
6029 1 11.6005 -2.90927 -2.14046
6030 1 28.5377 28.0013 20.0091
6031 1 -1.49275 16.9702 14.1051
6032 1 35.5526 1.33227 24.2456
6033 1 6.65424 6.62645 17.264
6034 1 7.48378 36.1342 9.10229
6035 1 1.05637 24.7367 6.0168
6036 1 8.41403 5.94244 17.9426
6037 1 31.6129 28.8084 8.22247
6038 1 18.4351 26.8351 -0.82675
6039 1 24.0376 35.3467 38.0831
6040 1 24.9251 -2.41958 19.4041
6041 1 19.9382 7.24578 1.01448
6042 1 17.0551 26.7403 33.8027
6043 1 0.998303 0.136388 -2.76715
6044 1 38.3549 15.2793 31.8052
6045 1 28.8866 13.5999 29.7076
6046 1 5.08021 37.9572 10.7389
6047 1 -0.421832 34.7209 13.8024
6048 1 4.59903 9.94185 32.8249
6049 1 7.07993 29.5369 18.2336
6050 1 3.57055 26.6992 37.0728
6051 1 12.1648 25.7714 -1.01835
6052 1 12.4429 22.7576 4.97756
6053 1 0.33318 8.74581 10.1558
6054 1 30.4536 33.8665 4.99545
6055 1 18.231 27.6192 37.4082
6056 1 -2.68221 17.6584 35.3673
6057 1 4.42601 5.41306 20.4108
6058 1 19.4545 18.966 5.87337
6059 1 2.91795 27.8148 37.5453
6060 1 36.3334 36.3597 11.2918
6061 1 26.755 2.63234 23.0572
6062 1 8.76416 -2.88119 37.3747
6063 1 4.14207 35.0443 5.23405
6064 1 17.5176 36.7562 -1.31706
6065 1 16.2082 14.1742 33.7956
6066 1 13.1266 15.3782 29.0792
6067 1 33.471 36.1678 27.0744
6068 1 22.9335 20.0624 16.3648
6069 1 34.1604 32.3304 1.74255
6070 1 38.0764 37.3318 7.9657
6071 1 29.998 33.6761 16.7496
6072 1 13.1725 26.295 9.32519
6073 1 14.1666 36.8072 11.1691
6074 1 34.0774 -3.04943 38.5015
6075 1 28.9251 23.3847 0.542783
6076 1 4.66481 19.9898 31.8571
6077 1 2.10704 38.3237 11.2373
6078 1 6.92241 22.5113 10.0137
6079 1 33.3439 19.0234 38.7513
6080 1 32.9806 37.8124 24.3256
6081 1 24.6029 21.2875 22.3237
6082 1 37.6315 14.9134 32.9041
6083 1 31.2092 35.6823 7.13556
6084 1 36.4082 -0.356398 23.5642
6085 1 6.60932 6.46588 37.0255
6086 1 35.6328 28.6981 29.7335
6087 1 33.3897 2.75852 37.8334
6088 1 13.5251 27.6232 31.4031
6089 1 25.0013 18.5521 12.2742
6090 1 -0.0774526 10.5756 5.55838
6091 1 12.0725 0.975541 33.5016
6092 1 17.7248 22.5647 6.98412
6093 1 18.8502 26.411 21.1323
6094 1 12.0581 31.7269 -0.4763
6095 1 17.2669 7.65763 28.259
6096 1 1.5667 25.9964 24.0486
6097 1 23.6271 3.78937 37.6125
6098 1 13.079 0.550624 13.6237
6099 1 -1.23582 19.2275 0.321294
6100 1 15.6885 20.5673 16.0323
6101 1 1.05814 10.0332 28.844
6102 1 4.60441 -2.76833 11.3188
6103 1 -2.5112 9.18149 37.8099
6104 1 16.4857 4.26017 27.5349
6105 1 34.6807 36.0318 -1.81751
6106 1 34.5975 28.6037 26.9549
6107 1 33.9886 11.9479 8.8973
6108 1 36.9619 37.8038 -1.75331
6109 1 -0.898575 2.14194 37.8617
6110 1 22.1881 13.3179 13.0486
6111 1 -1.83539 11.0945 12.3161
6112 1 16.5016 -0.808508 37.5732
6113 1 2.89215 29.217 0.424904
6114 1 20.1348 9.47366 3.1294
6115 1 30.0004 33.7581 12.266
6116 1 36.0738 -1.10297 5.91692
6117 1 15.4625 15.5965 22.0117
6118 1 4.86891 32.9501 11.1966
6119 1 20.4216 36.2137 -1.59853
6120 1 8.69673 8.41549 29.3811
6121 1 23.7899 0.716047 7.30906
6122 1 31.0244 15.457 23.0863
6123 1 28.3208 11.9605 6.25649
6124 1 27.0951 30.65 21.2877
6125 1 2.31056 36.9601 11.5697
6126 1 23.6671 16.5062 24.812
6127 1 8.21658 20.111 33.4529
6128 1 -2.79145 22.2348 4.54333
6129 1 29.6514 27.5131 5.29204
6130 1 3.4665 6.91155 36.9954
6131 1 18.8232 34.4103 -0.13348
6132 1 11.876 38.5424 23.3893
6133 1 5.37439 9.85813 11.7264
6134 1 12.4151 12.5451 37.0984
6135 1 37.5299 14.969 18.949
6136 1 35.8647 22.8779 5.22518
6137 1 29.5621 20.1156 19.1855
6138 1 14.3754 -1.50101 3.90105
6139 1 32.0998 23.379 36.3318
6140 1 38.1195 36.2103 23.0142
6141 1 13.7937 23.34 31.1038
6142 1 4.93693 -3.01 28.2021
6143 1 22.044 21.7908 10.9141
6144 1 32.6956 8.04542 31.4202
6145 1 19.547 -1.86773 9.62873
6146 1 6.44537 33.3003 26.7408
6147 1 14.2806 30.9071 35.3558
6148 1 11.5855 -1.92418 6.87939
6149 1 14.905 30.021 20.6323
6150 1 18.9339 -1.73022 -0.493573
6151 1 -1.75511 27.0451 5.09973
6152 1 8.1633 14.0502 25.2466
6153 1 15.4884 36.7526 36.0206
6154 1 28.1784 11.2594 13.6413
6155 1 9.71215 -2.2432 31.8495
6156 1 4.62413 13.285 18.8784
6157 1 35.4585 -0.195582 4.25114
6158 1 37.2527 38.662 34.0966
6159 1 17.9833 16.2449 23.6973
6160 1 23.5911 21.6593 33.0011
6161 1 6.90598 3.66011 17.5821
6162 1 34.9677 12.5105 15.0233
6163 1 0.544412 20.7536 8.83461
6164 1 35.612 29.937 18.8742
6165 1 29.5786 31.6483 20.9075
6166 1 34.3181 30.897 0.28028
6167 1 3.45686 36.8282 30.2529
6168 1 7.10204 16.9504 28.2176
6169 1 31.6113 37.7718 37.9451
6170 1 -2.14295 31.2651 33.0296
6171 1 36.7717 9.21631 16.3697
6172 1 37.6931 35.9872 33.0604
6173 1 12.8185 34.9481 32.725
6174 1 31.8606 7.41794 12.4932
6175 1 35.6879 17.3958 35.272
6176 1 0.0452778 32.3452 8.35439
6177 1 23.8649 20.3539 6.07601
6178 1 32.7765 6.35398 33.7914
6179 1 11.729 13.5626 15.5901
6180 1 2.42053 -1.59777 28.9413
6181 1 35.4016 27.7208 7.62037
6182 1 21.3002 8.88147 28.0609
6183 1 17.3955 8.85174 18.548
6184 1 23.7444 31.8848 31.0732
6185 1 1.64851 -3.09057 9.35607
6186 1 22.8654 26.4088 13.9862
6187 1 25.06 25.927 30.3826
6188 1 31.557 25.3113 16.764
6189 1 12.6293 24.5479 33.5756
6190 1 17.331 0.272831 36.9353
6191 1 11.0137 3.57727 0.131145
6192 1 1.47877 -2.95534 32.0372
6193 1 7.62319 1.94821 3.05486
6194 1 34.9973 16.8469 11.4235
6195 1 6.06463 29.221 -2.21246
6196 1 10.4209 20.2328 0.718115
6197 1 37.1499 34.8494 2.05696
6198 1 27.6583 33.6802 18.5728
6199 1 18.8961 36.5115 3.6923
6200 1 14.0055 25.7603 38.1752
6201 1 2.51072 16.6632 36.9033
6202 1 36.4354 27.8801 22.6318
6203 1 28.8789 28.3605 1.22565
6204 1 -0.0758119 17.8309 35.9936
6205 1 21.4517 17.7876 31.9799
6206 1 33.254 24.6838 8.52615
6207 1 31.2668 17.7675 27.2013
6208 1 8.97119 18.801 27.0685
6209 1 33.206 1.96613 34.2211
6210 1 36.3504 24.7879 20.2004
6211 1 18.6518 20.8007 9.17134
6212 1 3.74261 0.46464 -0.027649
6213 1 16.0602 15.4668 31.6477
6214 1 8.21723 4.61568 10.5807
6215 1 10.6032 8.35983 0.631003
6216 1 3.85967 16.8907 24.8253
6217 1 33.7163 31.8405 12.4281
6218 1 12.0764 13.3828 7.64844
6219 1 13.6063 15.289 26.3347
6220 1 10.1358 18.0312 32.1222
6221 1 30.9878 30.1796 36.8171
6222 1 24.7281 28.9386 21.7693
6223 1 21.6201 0.169386 9.0765
6224 1 -3.02476 19.2051 25.1557
6225 1 25.9455 32.7784 32.9284
6226 1 11.5039 14.6994 10.1447
6227 1 35.1714 -0.538687 38.6641
6228 1 32.9018 30.9275 24.5283
6229 1 26.3936 29.2673 31.4918
6230 1 18.9989 18.9838 32.0291
6231 1 35.5147 35.81 7.32858
6232 1 28.559 9.95741 4.17501
6233 1 8.10614 0.820646 13.4086
6234 1 36.0889 20.2071 0.660038
6235 1 31.8806 3.7315 33.1275
6236 1 32.3892 9.7177 14.1201
6237 1 10.7533 33.4878 31.0505
6238 1 28.4355 4.13156 -1.75986
6239 1 30.7822 16.6424 -2.80872
6240 1 27.5311 2.43847 2.58189
6241 1 8.57878 0.783715 20.7043
6242 1 10.9691 26.1507 12.1048
6243 1 30.1829 24.0736 28.6135
6244 1 34.4909 6.94285 38.2469
6245 1 38.5193 1.16199 31.5155
6246 1 4.67054 14.1705 14.4509
6247 1 25.2919 35.4222 15.8997
6248 1 2.19389 14.0627 9.22482
6249 1 4.98532 13.6455 38.3809
6250 1 10.1498 33.1694 38.1162
6251 1 6.18433 20.524 17.395
6252 1 9.52035 -0.945258 4.2755
6253 1 19.913 11.299 1.04851
6254 1 2.1809 21.1284 -2.81026
6255 1 2.67971 17.8227 1.0016
6256 1 33.1715 19.5578 1.96821
6257 1 18.1052 11.4891 15.5808
6258 1 31.6262 26.4848 0.459467
6259 1 5.8576 26.8004 0.971327
6260 1 10.0082 18.0748 3.03289
6261 1 1.77738 -2.90672 22.2783
6262 1 14.8933 37.4274 16.5149
6263 1 20.5682 32.7727 27.6349
6264 1 28.0551 0.264339 26.7277
6265 1 3.23074 12.712 6.47281
6266 1 33.263 36.3375 9.25752
6267 1 4.93475 23.6488 19.1987
6268 1 2.35863 2.10009 35.362
6269 1 -1.52079 -0.80766 21.3379
6270 1 31.6794 22.9171 13.2698
6271 1 5.99335 21.7207 -2.38693
6272 1 19.3491 8.21121 16.4001
6273 1 14.0902 3.45448 36.8939
6274 1 33.2605 18.7518 19.1202
6275 1 16.8042 28.207 2.60038
6276 1 15.346 -1.02704 12.6847
6277 1 -1.52641 13.4619 28.385
6278 1 11.3896 37.1701 13.9653
6279 1 37.7418 0.565899 14.5677
6280 1 22.3956 21.6713 4.53625
6281 1 24.5124 28.6652 31.0685
6282 1 19.4974 21.2763 38.2093
6283 1 -3.00052 1.54185 12.1535
6284 1 -2.79348 18.6279 -0.790087
6285 1 17.1811 24.3419 20.162
6286 1 -0.638165 20.9195 36.2272
6287 1 17.7394 15.5573 5.55023
6288 1 23.0105 23.8176 29.9387
6289 1 30.6328 28.2053 37.0326
6290 1 23.8026 3.68914 1.22793
6291 1 21.996 15.2249 -2.73843
6292 1 36.9926 9.51892 4.29729
6293 1 23.7761 19.6383 13.4605
6294 1 3.22183 28.2919 9.93891
6295 1 35.8423 35.1751 3.52419
6296 1 4.95539 -1.00233 21.2417
6297 1 19.1568 15.9915 36.4216
6298 1 26.1919 26.8034 6.03425
6299 1 -1.54861 10.2456 21.7251
6300 1 18.0194 22.4336 12.3274
6301 1 34.9521 -0.825222 35.7405
6302 1 2.67131 12.3938 33.0174
6303 1 3.46698 21.2926 9.02741
6304 1 35.3379 12.859 -0.779458
6305 1 -2.34925 27.0681 9.88436
6306 1 30.5791 34.049 19.7201
6307 1 20.8551 31.7986 34.7029
6308 1 11.4766 23.3765 12.2044
6309 1 8.76994 7.07705 18.592
6310 1 36.9397 15.2104 30.3761
6311 1 34.2204 22.0068 35.8963
6312 1 -1.96518 13.4297 20.4753
6313 1 37.4567 11.0 -0.139011
6314 1 -0.672954 25.3289 20.7515
6315 1 31.3551 13.1219 24.7992
6316 1 17.9363 4.57171 12.8668
6317 1 1.25492 5.28578 -0.904755
6318 1 30.5987 0.675982 5.22224
6319 1 9.15738 33.1761 12.0329
6320 1 38.3699 0.705545 0.173185
6321 1 26.3893 24.1611 33.8556
6322 1 13.6055 15.9738 -2.5998
6323 1 -2.33223 0.818567 1.82085
6324 1 28.4665 34.2035 30.7066
6325 1 2.77042 15.3298 1.65207
6326 1 12.9139 13.8101 1.7445
6327 1 6.29868 12.0419 8.74704
6328 1 18.3326 -1.36213 33.7648
6329 1 17.6811 6.49499 14.8285
6330 1 15.8579 7.84748 21.6816
6331 1 0.32559 -2.57221 33.6128
6332 1 25.0726 17.855 -1.96052
6333 1 37.0604 34.758 25.2461
6334 1 9.91299 38.3004 32.0823
6335 1 26.8291 17.9728 28.8953
6336 1 0.0111224 30.5134 19.5449
6337 1 9.98914 18.91 37.7174
6338 1 11.9442 0.730566 19.5517
6339 1 -1.03634 -1.63311 31.1755
6340 1 32.084 24.5234 19.8108
6341 1 10.1273 18.8278 18.5106
6342 1 25.8501 37.8187 24.7125
6343 1 12.3021 6.13213 28.0822
6344 1 12.8891 29.0009 -0.963791
6345 1 6.306 6.17925 20.6647
6346 1 31.947 5.47772 12.1932
6347 1 1.57757 0.51808 25.1872
6348 1 28.5986 36.6565 12.0651
6349 1 0.0122348 28.2192 34.6309
6350 1 38.4316 29.8861 1.48297
6351 1 29.1726 7.36572 10.2549
6352 1 1.44271 -1.28521 4.48136
6353 1 9.83412 21.4174 20.4774
6354 1 26.6755 8.41165 2.5044
6355 1 21.5194 24.0834 8.63233
6356 1 27.6816 17.681 10.1961
6357 1 33.1609 12.6148 14.1777
6358 1 20.2352 28.5824 23.2476
6359 1 32.5276 36.7734 32.9814
6360 1 31.6198 22.1796 37.8718
6361 1 23.491 -2.06249 7.7168
6362 1 26.0145 18.376 0.469302
6363 1 36.9933 32.2475 2.35267
6364 1 9.28327 37.7729 20.0872
6365 1 21.1874 2.42363 -1.31612
6366 1 19.4103 0.148652 17.8501
6367 1 3.50504 1.58372 -1.69159
6368 1 28.1173 37.0099 -2.18847
6369 1 5.91481 14.4361 10.38
6370 1 34.9934 1.02496 -1.93064
6371 1 19.9008 12.7086 19.6474
6372 1 19.7401 24.6378 -1.70297
6373 1 18.7352 38.6453 20.5593
6374 1 30.2405 16.2785 29.7694
6375 1 22.4275 -2.58579 19.9538
6376 1 28.7637 24.2223 35.6746
6377 1 5.65598 1.26158 11.5015
6378 1 -1.82881 30.2932 4.05589
6379 1 -0.803389 18.3552 17.1952
6380 1 29.6605 33.319 1.21391
6381 1 19.2954 6.01523 3.45086
6382 1 34.1449 14.4788 29.3949
6383 1 24.0945 13.1078 10.3422
6384 1 31.7871 34.9435 33.3576
6385 1 26.6798 9.96388 18.5937
6386 1 31.8044 2.46429 20.1909
6387 1 29.2671 26.0959 11.5645
6388 1 18.7015 14.2931 35.4187
6389 1 1.74287 6.22701 6.93779
6390 1 38.0286 29.3103 10.6452
6391 1 29.3332 35.8256 25.1851
6392 1 16.7099 10.6685 4.17159
6393 1 8.28352 16.8078 7.29978
6394 1 13.4514 35.9916 16.6711
6395 1 29.2051 8.59469 38.1628
6396 1 16.835 11.8131 9.34256
6397 1 25.8906 35.8829 27.5023
6398 1 -2.43839 16.7814 7.77319
6399 1 17.2354 4.27314 30.044
6400 1 20.4509 24.6781 11.1921
6401 1 10.1198 18.9739 12.0642
6402 1 26.8261 14.4064 25.7898
6403 1 20.3831 2.09172 8.61756
6404 1 37.5376 31.8546 5.20878
6405 1 17.1318 24.2122 2.48883
6406 1 10.0827 5.79913 -1.51081
6407 1 -3.06853 9.24353 27.0068
6408 1 21.4356 21.4181 34.5219
6409 1 16.7895 17.584 33.86
6410 1 1.37315 29.3951 29.3797
6411 1 -1.55665 33.4634 3.14647
6412 1 38.1475 16.6403 11.4766
6413 1 15.4082 7.37279 3.29596
6414 1 17.4768 14.7753 31.41
6415 1 20.0434 23.2689 9.77143
6416 1 16.2658 10.1044 6.03328
6417 1 16.6755 19.2509 21.44
6418 1 11.8726 0.00658717 17.0214
6419 1 9.56419 14.7817 12.6923
6420 1 28.1581 26.1818 8.432
6421 1 -1.66372 1.572 0.0486932
6422 1 15.9842 4.16383 24.109
6423 1 33.9129 12.2065 18.9153
6424 1 17.7618 35.72 -2.32647
6425 1 0.181239 37.3655 -1.75797
6426 1 21.7451 -3.12781 35.384
6427 1 32.0174 37.5915 0.856879
6428 1 1.13023 15.2487 26.1986
6429 1 9.86422 20.8424 12.7629
6430 1 3.63281 36.4024 9.49101
6431 1 7.72188 28.3949 7.76155
6432 1 27.1874 20.4084 34.2483
6433 1 34.0431 16.2367 18.7159
6434 1 -2.96408 0.249939 18.7826
6435 1 3.95818 14.7856 1.46582
6436 1 8.89213 0.152072 -2.03016
6437 1 14.4536 31.2603 21.2713
6438 1 28.6665 24.0449 22.4034
6439 1 34.2514 14.0499 17.2644
6440 1 5.63296 13.6024 6.86335
6441 1 5.6289 21.6738 29.5466
6442 1 -0.446549 7.3952 7.70744
6443 1 9.24213 25.8728 -2.32138
6444 1 -0.494213 17.7347 25.6119
6445 1 15.3009 25.4841 24.6377
6446 1 22.3259 1.3703 29.0647
6447 1 15.1229 16.9944 -1.73727
6448 1 17.1416 30.4028 18.4449
6449 1 4.98756 22.1962 12.9386
6450 1 25.3445 11.6044 10.7819
6451 1 17.8882 12.1189 -2.12923
6452 1 33.2585 22.7256 16.9849
6453 1 8.70241 20.2356 29.7055
6454 1 14.3071 15.1752 18.0196
6455 1 35.2812 11.8745 37.5838
6456 1 4.71673 12.9283 16.0842
6457 1 36.6069 9.46784 25.8697
6458 1 11.4189 14.3863 -2.84045
6459 1 14.4786 26.5467 -1.90122
6460 1 25.0416 30.38 33.8401
6461 1 12.7573 17.0632 4.13419
6462 1 27.2741 14.3718 0.76439
6463 1 11.886 6.94577 15.7361
6464 1 33.3183 9.76882 13.0171
6465 1 1.73887 6.82328 20.2865
6466 1 32.9841 10.296 11.1098
6467 1 23.9048 2.90236 31.5655
6468 1 6.93065 -1.24009 38.3604
6469 1 5.2157 1.22972 7.35879
6470 1 29.2104 6.69295 5.88459
6471 1 37.8011 15.0379 36.211
6472 1 -1.64616 31.5673 34.9653
6473 1 36.5124 -2.66978 36.5042
6474 1 7.246 30.4317 24.0437
6475 1 32.5096 -1.63841 32.3138
6476 1 37.1689 8.36451 8.3363
6477 1 25.2299 30.7119 9.30984
6478 1 22.088 31.6172 33.0797
6479 1 0.484885 2.82655 22.0473
6480 1 20.5657 18.5911 14.9038
6481 1 16.8706 38.5692 22.9417
6482 1 14.9309 12.4296 6.04721
6483 1 33.8837 17.5922 34.3975
6484 1 28.8668 23.2433 21.2061
6485 1 30.3826 22.8114 1.81206
6486 1 19.2672 1.65695 0.383695
6487 1 3.66939 31.9399 23.2009
6488 1 1.46562 23.0261 26.4884
6489 1 10.1652 9.87113 10.9408
6490 1 16.7249 21.8497 -2.69804
6491 1 10.0442 18.5051 1.68385
6492 1 -1.40976 29.9523 -2.89159
6493 1 30.3263 14.0837 13.5844
6494 1 1.47023 10.2982 26.8746
6495 1 13.323 -1.1005 12.49
6496 1 2.43901 24.0391 8.13526
6497 1 16.889 28.559 26.1844
6498 1 10.9771 17.3877 11.2148
6499 1 35.212 31.3415 21.5269
6500 1 24.3896 5.00296 8.67758
6501 1 11.7229 29.9124 30.6656
6502 1 -0.246418 31.8977 36.349
6503 1 9.61844 22.5637 6.50551
6504 1 -3.03877 -0.944661 7.15125
6505 1 21.4856 -0.126635 4.90367
6506 1 17.7284 35.641 27.272
6507 1 9.31089 1.70358 16.1674
6508 1 33.4644 7.335 25.7502
6509 1 3.75147 38.0659 35.0767
6510 1 -0.515673 13.0803 4.58473
6511 1 18.823 5.5953 37.404
6512 1 36.2856 -1.41932 35.8297
6513 1 7.86653 21.971 11.6971
6514 1 3.28658 34.6954 21.6705
6515 1 35.9534 37.752 24.3792
6516 1 31.9065 36.3959 18.5583
6517 1 1.74649 5.47741 20.2359
6518 1 5.48906 -2.76209 2.77876
6519 1 1.65694 4.83154 26.0997
6520 1 11.2736 1.16659 30.5034
6521 1 16.6117 26.6152 6.05208
6522 1 6.97362 38.6483 28.2717
6523 1 33.3637 -1.74366 23.1423
6524 1 -1.86773 33.5099 11.809
6525 1 35.726 33.5468 36.7323
6526 1 14.3165 -1.83535 8.88856
6527 1 9.43244 6.88345 14.256
6528 1 4.03125 29.0865 19.9342
6529 1 21.3047 23.4718 24.6045
6530 1 11.4185 12.5219 11.6869
6531 1 38.4035 28.2341 27.1972
6532 1 11.8821 10.1297 36.8156
6533 1 21.3801 -3.21756 26.4239
6534 1 26.8978 36.5229 1.0272
6535 1 0.250634 14.231 12.0819
6536 1 1.3246 22.115 4.10838
6537 1 10.1502 32.5685 36.1978
6538 1 37.2133 36.6168 -0.148875
6539 1 17.4604 18.0574 31.1314
6540 1 24.4697 10.716 29.8434
6541 1 23.7469 3.5636 34.3515
6542 1 12.0226 -0.809989 -0.4583
6543 1 32.4021 6.80676 9.34261
6544 1 26.2199 8.55991 -2.78166
6545 1 6.07413 11.6062 3.44099
6546 1 0.0636038 4.74936 15.4235
6547 1 36.9518 24.1483 0.286001
6548 1 5.78676 6.97161 18.3277
6549 1 9.13847 14.2339 22.9571
6550 1 22.4158 1.43444 1.11112
6551 1 22.292 -2.58855 9.25888
6552 1 31.8316 14.2171 32.0566
6553 1 -2.59505 23.983 34.1417
6554 1 13.112 18.6228 -1.43289
6555 1 35.5435 19.7381 33.808
6556 1 27.4608 13.6131 28.2669
6557 1 11.5835 19.1458 5.78266
6558 1 24.1134 13.1191 12.3484
6559 1 25.2591 26.4106 23.6624
6560 1 12.3322 5.00034 22.7885
6561 1 0.567193 12.8887 9.46708
6562 1 12.4876 10.8133 29.5283
6563 1 3.62108 17.5293 -2.3193
6564 1 24.8545 11.4497 34.2321
6565 1 16.1926 6.31466 7.8019
6566 1 -1.44484 13.6192 26.3637
6567 1 -1.58823 33.2145 -1.95699
6568 1 12.8361 31.5962 30.8119
6569 1 -0.31565 38.0335 16.4318
6570 1 0.732022 4.35551 32.279
6571 1 1.59234 26.5667 19.4481
6572 1 17.6959 13.5469 11.1855
6573 1 1.26451 19.1349 1.60875
6574 1 11.0505 38.1571 38.003
6575 1 8.93875 13.7336 8.09397
6576 1 -0.95879 31.8784 12.5241
6577 1 24.1951 11.6725 32.3555
6578 1 12.8644 14.9334 9.60749
6579 1 -0.798233 0.775794 7.86231
6580 1 -0.514614 9.75912 1.38154
6581 1 -2.42233 31.1606 5.10778
6582 1 6.42668 28.3436 28.7493
6583 1 17.379 11.9269 32.3596
6584 1 37.504 1.2421 25.9953
6585 1 33.4957 23.7149 21.0169
6586 1 19.068 1.08175 14.5832
6587 1 23.1134 2.8421 16.3696
6588 1 23.5633 36.6192 34.5095
6589 1 -1.65922 23.1871 27.3264
6590 1 17.2096 23.0988 36.5367
6591 1 20.0441 18.3633 37.4703
6592 1 7.8271 35.3247 18.397
6593 1 19.0972 1.7311 32.8124
6594 1 34.8505 18.6643 12.2778
6595 1 17.2637 -0.80056 21.8061
6596 1 37.6742 -3.11219 24.5065
6597 1 13.0434 31.966 25.2739
6598 1 0.588681 5.32191 0.325591
6599 1 5.31377 17.6428 8.85788
6600 1 36.8595 28.6436 10.0897
6601 1 30.2455 17.8375 16.4595
6602 1 35.4712 31.4726 33.9421
6603 1 25.2797 23.6263 24.657
6604 1 4.45984 36.4593 2.73523
6605 1 -0.912523 26.6976 2.44614
6606 1 13.8446 10.2035 4.1305
6607 1 24.0299 21.0209 -1.16284
6608 1 30.1895 31.1699 11.4781
6609 1 37.4381 -2.1218 30.0005
6610 1 -0.614125 6.20302 23.9738
6611 1 0.679984 1.07618 17.278
6612 1 -0.0329823 -0.788314 2.25863
6613 1 26.4507 0.411181 14.8716
6614 1 36.6091 26.0663 21.7309
6615 1 14.6935 10.7367 32.9212
6616 1 25.1642 15.4212 19.1233
6617 1 8.29102 31.562 27.3532
6618 1 25.0434 -2.3318 26.7572
6619 1 13.765 8.06851 10.4265
6620 1 -1.06523 4.35429 10.045
6621 1 2.10261 28.2699 6.80398
6622 1 30.3722 27.0399 36.423
6623 1 13.2439 26.9727 5.35895
6624 1 21.2258 12.7243 32.4932
6625 1 11.0191 -0.942709 8.56118
6626 1 8.10003 33.2115 5.34179
6627 1 27.3464 11.4558 0.49707
6628 1 17.786 14.8252 25.1207
6629 1 8.93744 28.387 1.20565
6630 1 2.34024 32.0203 23.4356
6631 1 6.06151 22.1462 21.1342
6632 1 -1.82781 36.674 20.3078
6633 1 1.81298 12.1051 13.5975
6634 1 10.8285 38.259 28.2951
6635 1 27.9871 3.45217 21.6674
6636 1 30.5201 30.6522 22.3698
6637 1 24.7185 3.13977 11.2418
6638 1 16.4282 1.27247 23.4938
6639 1 3.37493 3.88788 4.92833
6640 1 14.6886 38.4473 5.99033
6641 1 15.9583 4.98462 5.53622
6642 1 9.60381 21.9186 9.13515
6643 1 19.4757 1.39935 30.8287
6644 1 13.5037 3.74991 28.2971
6645 1 10.9249 20.1879 5.19258
6646 1 7.02064 34.8391 4.8604
6647 1 -1.66809 21.0289 12.0682
6648 1 34.289 27.9152 35.2772
6649 1 25.5204 25.6412 -0.880418
6650 1 24.6558 23.1189 5.40533
6651 1 11.7483 34.6007 -0.376208
6652 1 10.0464 -0.239139 16.226
6653 1 32.0433 6.08149 15.8266
6654 1 37.6223 19.7952 4.45409
6655 1 25.3402 12.206 22.4016
6656 1 23.2621 33.8812 13.9831
6657 1 38.2807 19.3909 6.32619
6658 1 29.1531 13.8281 33.4136
6659 1 16.0313 5.21616 13.0233
6660 1 23.0505 33.6498 10.3126
6661 1 6.77228 13.7524 28.8595
6662 1 30.676 29.5742 29.6266
6663 1 34.5066 12.7644 20.775
6664 1 24.3035 1.42204 4.483
6665 1 6.44834 17.5565 4.36618
6666 1 20.1337 25.7698 -1.14133
6667 1 24.9157 10.0089 25.3972
6668 1 36.0873 19.9177 38.1958
6669 1 10.4074 12.5979 0.526379
6670 1 19.2464 30.6863 -0.124954
6671 1 25.3913 6.03296 8.90578
6672 1 1.25112 17.7678 24.5824
6673 1 7.21059 14.7723 3.61296
6674 1 -1.77132 6.55203 19.6674
6675 1 27.6727 34.5064 3.45313
6676 1 38.0139 7.47344 13.9714
6677 1 12.2664 14.5271 29.7491
6678 1 -2.97648 17.1614 32.2034
6679 1 23.4066 33.7607 31.6822
6680 1 1.8583 32.7908 12.2924
6681 1 26.7546 34.6632 18.7106
6682 1 22.4577 0.0771603 17.6089
6683 1 3.17706 37.4896 3.10673
6684 1 9.12438 35.9672 10.2653
6685 1 5.80295 15.5707 34.3407
6686 1 1.81983 9.39889 12.7617
6687 1 25.6056 29.6987 28.3383
6688 1 24.3854 28.0128 15.9353
6689 1 8.93776 -0.110691 1.27698
6690 1 19.9898 13.1108 32.0332
6691 1 12.2544 20.2255 36.7358
6692 1 6.30451 34.7975 14.6573
6693 1 27.6508 27.4113 13.6282
6694 1 33.2857 15.4924 32.6163
6695 1 17.6998 24.4602 32.3334
6696 1 16.4026 35.1413 38.2129
6697 1 3.51982 11.6438 8.16646
6698 1 38.5858 35.388 27.1589
6699 1 12.1464 37.3974 0.613511
6700 1 21.5976 30.5301 32.2636
6701 1 -2.74407 21.9077 9.57936
6702 1 11.1954 25.8655 -2.7873
6703 1 1.38737 12.1248 32.5188
6704 1 7.96039 32.429 15.2064
6705 1 2.94969 17.6212 -0.421235
6706 1 5.60301 32.1985 28.2077
6707 1 7.50748 17.7243 30.7606
6708 1 21.3971 26.7687 33.1336
6709 1 12.3767 27.4938 36.797
6710 1 16.2772 -1.67376 -2.50378
6711 1 4.10736 28.6881 0.282691
6712 1 2.97977 7.00272 5.54408
6713 1 33.0712 30.3896 34.4024
6714 1 30.2755 11.2368 30.5402
6715 1 13.5704 29.7507 17.8929
6716 1 22.3623 35.114 29.8075
6717 1 0.114013 38.3923 12.6666
6718 1 20.1573 32.2641 37.584
6719 1 1.53989 23.2835 34.0175
6720 1 28.2961 2.09862 13.7648
6721 1 3.49089 6.61301 15.3151
6722 1 37.2856 14.5344 14.7616
6723 1 -1.25796 7.90985 1.12889
6724 1 33.3443 20.6566 7.50883
6725 1 -2.85658 12.2219 26.0527
6726 1 16.2277 5.17579 10.6267
6727 1 8.42642 6.26356 28.4042
6728 1 33.603 36.3224 11.254
6729 1 4.84867 26.6063 4.32107
6730 1 22.9403 1.03825 33.6312
6731 1 26.0346 38.5508 31.003
6732 1 -1.05113 30.5751 17.7887
6733 1 4.62339 36.6715 0.00199225
6734 1 10.3192 35.1632 37.7845
6735 1 33.3413 19.9954 22.9132
6736 1 22.9633 8.17555 23.9602
6737 1 0.330162 -3.12778 14.6355
6738 1 27.4593 2.80759 28.541
6739 1 31.249 -0.545135 7.88257
6740 1 9.9135 -2.4042 19.2464
6741 1 26.0808 17.0919 0.23109
6742 1 36.8233 37.2875 9.57382
6743 1 32.1025 37.5969 30.2138
6744 1 28.1864 10.6555 17.4222
6745 1 8.1302 26.8147 34.9244
6746 1 10.4838 22.4862 -0.957402
6747 1 7.61634 11.4333 17.9214
6748 1 13.9794 31.5616 13.447
6749 1 5.69408 -2.81925 38.5913
6750 1 34.5801 13.83 2.67249
6751 1 7.40071 35.3165 34.6492
6752 1 -2.23488 7.47584 17.9556
6753 1 20.3976 24.0333 19.2794
6754 1 33.9996 22.1184 5.05001
6755 1 7.78148 -0.793083 30.3178
6756 1 37.5415 29.1613 25.6255
6757 1 36.5929 30.0887 17.8534
6758 1 -1.09992 31.2367 25.0437
6759 1 8.0151 32.8847 -0.841647
6760 1 29.973 29.557 31.5338
6761 1 -1.79892 6.48183 -1.34848
6762 1 -0.743572 35.4324 -3.01549
6763 1 2.87487 2.45659 27.7586
6764 1 12.2782 18.4021 34.4039
6765 1 33.5444 7.74465 18.958
6766 1 9.37341 26.4729 9.22049
6767 1 19.7708 17.531 25.2876
6768 1 21.6905 17.7512 14.4595
6769 1 31.9409 34.0504 -2.01101
6770 1 1.74249 14.4716 28.842
6771 1 3.5235 33.7 26.8618
6772 1 0.640122 -1.55646 -0.855882
6773 1 21.1325 37.648 36.035
6774 1 -0.0460441 28.0642 17.8952
6775 1 17.8586 3.65481 16.5549
6776 1 22.7211 -0.92381 24.7598
6777 1 33.4517 36.1387 14.1339
6778 1 18.8452 22.0281 31.4818
6779 1 30.7342 35.386 13.1851
6780 1 35.455 38.3781 27.4977
6781 1 11.0399 22.8494 37.52
6782 1 12.4669 25.4958 36.8943
6783 1 25.4536 25.7653 12.4172
6784 1 23.6075 8.3292 -2.28335
6785 1 20.4142 18.0477 26.3953
6786 1 20.1534 36.8073 29.8596
6787 1 19.986 3.82412 35.5887
6788 1 33.9164 12.4659 29.3552
6789 1 24.5034 7.82392 8.75253
6790 1 9.09951 0.603456 27.8561
6791 1 35.7153 13.226 24.0765
6792 1 29.3264 14.2797 36.3352
6793 1 6.80473 3.8953 31.1234
6794 1 15.6319 15.4051 11.5023
6795 1 22.3213 24.11 35.0276
6796 1 -1.14232 1.68756 27.2343
6797 1 8.11086 29.5346 22.413
6798 1 22.1706 21.1698 29.7639
6799 1 22.2148 2.56531 26.7934
6800 1 38.631 17.753 33.4165
6801 1 23.1426 21.5332 0.565153
6802 1 26.4691 3.42281 2.81743
6803 1 20.7595 0.250488 7.97677
6804 1 3.14138 2.86424 26.4152
6805 1 6.70642 27.1722 -0.276939
6806 1 14.2074 28.2171 21.1738
6807 1 -1.52518 20.5448 15.008
6808 1 7.06709 37.8863 11.207
6809 1 0.930955 37.1517 35.9662
6810 1 8.85406 17.0489 23.3348
6811 1 25.4685 -0.810616 13.5843
6812 1 8.39066 32.8562 28.8499
6813 1 23.5782 23.0583 7.07572
6814 1 14.97 10.1904 37.376
6815 1 38.5365 0.800151 5.00922
6816 1 14.004 9.13476 -3.112
6817 1 18.7906 26.5467 9.42333
6818 1 21.0922 6.26502 20.8263
6819 1 0.663995 12.654 20.8062
6820 1 18.3419 34.8427 34.6992
6821 1 12.146 22.6431 30.2242
6822 1 32.1462 24.4869 2.11688
6823 1 32.4985 -3.06854 30.8848
6824 1 28.0827 29.1752 3.82823
6825 1 38.7044 10.9646 2.66731
6826 1 28.5258 26.158 -2.03649
6827 1 -3.10572 28.7343 11.7716
6828 1 22.4011 15.9925 36.2486
6829 1 -2.06232 4.26353 35.3507
6830 1 -1.07996 0.289114 29.3042
6831 1 4.11015 17.6462 2.40258
6832 1 21.9242 38.6233 7.36607
6833 1 14.3418 10.7194 -0.154536
6834 1 2.5701 24.8089 33.1145
6835 1 -1.11079 35.1427 22.905
6836 1 21.135 35.2561 27.2523
6837 1 29.4909 30.8674 -0.0497528
6838 1 21.7713 18.8656 20.1341
6839 1 6.80879 2.42134 15.9747
6840 1 7.28148 13.7875 30.2131
6841 1 -0.374062 18.4403 4.35697
6842 1 11.749 16.4561 36.6838
6843 1 -0.653711 16.681 8.72853
6844 1 2.93442 29.2779 36.172
6845 1 25.2878 26.8681 17.3492
6846 1 13.9937 10.8202 2.85978
6847 1 2.67451 -1.98423 24.3911
6848 1 17.5131 27.5565 10.6013
6849 1 30.5977 32.0449 34.6998
6850 1 25.2016 36.5313 3.66322
6851 1 8.64357 11.627 14.9776
6852 1 21.22 10.8183 8.95457
6853 1 34.7462 21.5208 -2.66086
6854 1 10.6406 13.1187 33.0455
6855 1 36.4737 14.599 10.1791
6856 1 34.4899 30.0304 15.8088
6857 1 9.2418 23.7607 20.6372
6858 1 -2.45129 30.5613 -1.29973
6859 1 11.9087 22.0679 21.834
6860 1 21.1825 0.811887 12.7149
6861 1 29.4933 9.15639 20.0882
6862 1 14.7197 36.4841 34.9424
6863 1 5.20573 9.60431 14.7805
6864 1 22.3836 36.9591 14.8054
6865 1 5.44943 26.8283 15.0507
6866 1 1.20958 33.0638 37.0629
6867 1 22.3008 27.2935 5.9944
6868 1 -0.708594 37.347 26.7006
6869 1 3.49455 7.71986 19.8228
6870 1 26.653 -2.37767 13.9682
6871 1 16.126 -2.59017 1.45708
6872 1 8.94862 11.778 17.6586
6873 1 22.1346 11.8879 5.81312
6874 1 4.06226 27.3223 1.76996
6875 1 27.2422 13.1278 16.4277
6876 1 8.03027 17.62 3.12206
6877 1 13.3894 21.4203 -2.93783
6878 1 31.29 6.58218 36.1444
6879 1 9.31398 13.4787 6.74914
6880 1 32.3444 29.0146 14.3044
6881 1 30.7036 16.1043 1.33082
6882 1 23.0051 -1.36521 21.4587
6883 1 14.2985 5.71907 3.10603
6884 1 8.15378 7.44412 22.7173
6885 1 0.629788 37.5818 30.838
6886 1 26.6257 31.1307 0.613082
6887 1 35.1109 22.979 2.60044
6888 1 35.7629 4.63548 11.4147
6889 1 9.99435 26.4607 15.0257
6890 1 17.2671 13.6122 18.8665
6891 1 34.4351 3.12402 28.5258
6892 1 17.5513 23.0025 11.2322
6893 1 11.6783 37.8862 32.9531
6894 1 34.8437 38.6251 4.35624
6895 1 3.21184 8.64203 29.5838
6896 1 4.58246 30.0964 37.0263
6897 1 8.86461 -2.69618 -2.48021
6898 1 5.34418 36.2984 6.24214
6899 1 22.0549 10.5919 25.7192
6900 1 9.5008 12.2419 33.4736
6901 1 29.2469 11.8838 32.9428
6902 1 21.3277 24.6251 21.8045
6903 1 9.05621 10.6111 30.9894
6904 1 22.2428 3.30607 9.84137
6905 1 36.3384 24.6867 9.80945
6906 1 12.4855 13.0924 13.3184
6907 1 31.4095 1.34616 17.4603
6908 1 33.4146 34.9667 3.86162
6909 1 -0.659868 37.5751 4.82499
6910 1 7.16674 13.9852 15.8573
6911 1 15.3153 6.92247 18.0199
6912 1 1.71887 2.11589 11.2505
6913 1 1.76708 3.79631 17.5358
6914 1 11.9731 37.0799 30.2511
6915 1 13.757 1.08456 0.149856
6916 1 20.3313 22.1652 21.7844
6917 1 16.5572 12.8144 27.3151
6918 1 14.6693 0.118567 29.3177
6919 1 37.3657 31.5408 13.3633
6920 1 4.81531 33.4424 38.1909
6921 1 28.1516 31.8015 -2.14836
6922 1 31.2161 36.2175 21.6635
6923 1 2.03929 37.3173 26.9138
6924 1 2.54848 28.4457 3.56663
6925 1 11.3311 38.2281 26.3246
6926 1 -1.23308 -1.45249 -0.143988
6927 1 32.0094 12.0466 4.31608
6928 1 24.284 33.7304 1.06694
6929 1 30.7129 2.63148 15.4886
6930 1 30.5907 10.4022 9.98361
6931 1 32.1284 15.223 14.6894
6932 1 10.3136 8.22075 31.8269
6933 1 16.9284 35.1339 11.548
6934 1 11.2894 -2.74786 2.99372
6935 1 34.9144 23.84 7.76029
6936 1 0.914237 8.08307 14.9948
6937 1 13.5162 35.3364 31.5796
6938 1 0.424651 14.4821 6.9793
6939 1 -3.05271 11.1145 37.9602
6940 1 23.2416 5.42514 22.5999
6941 1 34.1664 32.9952 10.8187
6942 1 12.773 27.5044 29.0332
6943 1 26.4228 1.7884 14.4361
6944 1 11.2805 35.2928 34.0145
6945 1 35.176 6.77033 0.317115
6946 1 5.48805 20.2589 21.5395
6947 1 6.22729 -1.64829 24.0349
6948 1 22.537 37.0988 26.8854
6949 1 25.673 12.0347 17.0948
6950 1 3.77797 -0.969881 -0.522496
6951 1 -2.00568 4.20656 18.1656
6952 1 2.32984 21.1985 26.7291
6953 1 2.79275 -1.76512 18.8018
6954 1 8.26491 31.4513 12.4834
6955 1 11.934 35.7995 9.62305
6956 1 34.7279 17.4038 3.95208
6957 1 8.08466 31.3451 21.55
6958 1 1.87075 1.93463 31.3998
6959 1 6.72638 12.035 6.23617
6960 1 7.52531 18.2614 33.7642
6961 1 19.5524 13.3344 10.5326
6962 1 6.11957 3.82124 34.6335
6963 1 9.10547 30.1275 0.185538
6964 1 19.219 0.869909 35.553
6965 1 18.9434 -2.94979 24.7021
6966 1 37.319 4.67702 19.3703
6967 1 9.60411 35.6764 -2.24554
6968 1 -1.19446 33.0176 30.9601
6969 1 31.1001 7.35613 2.72462
6970 1 -2.70368 20.4337 14.6009
6971 1 30.7942 29.6886 25.1958
6972 1 25.7769 5.11109 30.9614
6973 1 25.0181 15.0055 25.0654
6974 1 14.0883 1.45039 8.36811
6975 1 12.7241 29.6789 26.7132
6976 1 21.5941 31.1066 -1.86822
6977 1 28.4397 2.17826 20.1915
6978 1 18.1533 28.5744 2.79006
6979 1 3.6921 37.6815 21.115
6980 1 29.3355 36.6129 23.9814
6981 1 11.6086 2.09462 -2.81125
6982 1 4.78304 35.0853 29.1004
6983 1 1.64597 34.0415 5.04546
6984 1 13.1222 33.3927 37.1518
6985 1 24.4053 33.2472 34.1604
6986 1 4.66147 10.2269 20.4099
6987 1 32.1184 30.6015 20.1849
6988 1 38.3567 20.5757 34.2446
6989 1 5.5558 28.3392 37.0237
6990 1 11.6065 33.0937 13.0028
6991 1 28.7374 26.5349 16.3773
6992 1 1.11902 6.01177 36.5039
6993 1 3.33187 24.0923 38.3748
6994 1 36.1512 18.7219 16.3859
6995 1 4.39205 27.9811 32.0256
6996 1 16.521 9.21043 15.7336
6997 1 8.75509 0.617315 31.3996
6998 1 29.9234 -1.3606 28.7855
6999 1 -2.21051 13.1292 0.91651
7000 1 -2.02806 15.6978 24.7737
7001 1 10.6384 0.49838 -1.06978
7002 1 11.1001 -1.72518 15.3698
7003 1 38.4461 20.0946 11.6337
7004 1 21.3532 12.3601 20.9991
7005 1 7.18218 3.88641 12.7526
7006 1 11.1645 32.2856 1.24121
7007 1 25.1689 3.21019 21.9785
7008 1 29.8627 21.0603 9.97331
7009 1 21.5704 -1.179 35.8606
7010 1 37.2076 15.0602 -0.734007
7011 1 19.7792 8.94938 25.8292
7012 1 28.3832 4.62269 15.3763
7013 1 16.0766 17.1028 8.88965
7014 1 16.4638 32.7591 21.7205
7015 1 19.6017 33.8876 1.64917
7016 1 23.1826 32.1272 36.7917
7017 1 38.4144 23.4689 16.4453
7018 1 -2.93676 21.4456 0.360873
7019 1 33.9294 14.5698 0.237604
7020 1 0.65554 27.3028 0.356001
7021 1 37.2336 12.7475 9.9001
7022 1 12.3282 19.132 2.87171
7023 1 20.9865 24.8368 15.6679
7024 1 25.2751 7.5262 3.62198
7025 1 8.05387 31.1977 1.50968
7026 1 24.7592 -2.99881 -1.03145
7027 1 19.6485 22.1395 0.534802
7028 1 34.685 37.7462 16.0062
7029 1 37.4176 5.59687 22.7644
7030 1 36.7089 28.3469 37.7436
7031 1 0.126913 18.9925 -2.4065
7032 1 23.3396 14.7558 -3.04472
7033 1 3.81769 30.8501 20.9111
7034 1 11.6998 34.5811 31.0656
7035 1 24.2227 36.6085 24.5459
7036 1 34.7674 7.20899 2.2349
7037 1 18.9328 23.6151 21.5733
7038 1 1.38777 10.5171 -0.427369
7039 1 33.6366 29.7388 19.1939
7040 1 -2.1247 8.06573 33.7405
7041 1 7.67193 24.2697 26.9695
7042 1 10.9941 5.26158 25.8828
7043 1 -3.00412 32.3742 10.547
7044 1 16.1203 -1.70233 0.481785
7045 1 25.884 11.7691 27.4756
7046 1 22.2835 22.9935 8.61111
7047 1 3.73557 24.7508 34.7476
7048 1 23.9324 5.65651 12.4736
7049 1 9.75442 28.796 4.58516
7050 1 29.884 8.34863 26.8417
7051 1 14.5051 1.50395 20.6775
7052 1 -0.946015 35.237 0.628423
7053 1 0.476995 3.49186 -2.56925
7054 1 15.2195 4.5514 12.2015
7055 1 27.1151 2.39638 24.428
7056 1 26.054 12.2277 20.5338
7057 1 18.5936 3.01381 17.9275
7058 1 2.28546 28.8098 5.54244
7059 1 20.7043 4.85698 22.2163
7060 1 36.8886 3.0553 5.95486
7061 1 27.2116 32.5169 16.9765
7062 1 25.94 9.95476 24.4724
7063 1 28.8801 14.8629 30.1914
7064 1 16.4712 -2.71455 18.6629
7065 1 21.1725 15.8513 14.9246
7066 1 28.4366 -0.274334 0.0647328
7067 1 15.2505 19.7316 24.3024
7068 1 22.9315 17.1386 11.6761
7069 1 24.5595 6.70079 30.7815
7070 1 1.87691 -0.0836825 31.4768
7071 1 8.83405 19.3841 10.5617
7072 1 17.7134 2.40835 24.5523
7073 1 23.1291 18.5775 1.21355
7074 1 6.8211 6.89628 0.232254
7075 1 38.1259 0.976161 -1.83792
7076 1 13.4716 33.8976 0.385731
7077 1 35.9159 37.4545 37.2699
7078 1 23.7135 21.9009 18.6097
7079 1 36.0865 13.5289 21.767
7080 1 30.4758 4.68251 17.3806
7081 1 6.41062 10.9996 -1.71691
7082 1 37.8388 17.8782 19.1096
7083 1 27.7571 18.9801 15.2571
7084 1 30.9299 9.42272 28.237
7085 1 12.7693 26.123 22.6472
7086 1 35.3853 18.7434 6.31292
7087 1 28.8261 12.1094 28.2865
7088 1 -2.73956 15.4337 -1.17215
7089 1 29.869 2.8452 36.3201
7090 1 5.57241 8.86114 24.9884
7091 1 6.44385 23.6615 -2.80862
7092 1 24.7369 25.5642 11.1685
7093 1 -0.134235 21.3123 24.4197
7094 1 21.7889 9.02245 8.22326
7095 1 -2.17643 3.50744 15.4303
7096 1 30.2687 12.316 9.32858
7097 1 22.533 26.9849 23.3916
7098 1 13.3075 36.1943 38.1605
7099 1 20.1506 38.0989 28.3338
7100 1 31.0319 19.8713 24.7588
7101 1 37.0144 4.46299 10.7941
7102 1 37.7327 29.077 16.4613
7103 1 1.01183 3.77709 12.1141
7104 1 7.77379 6.42518 11.3681
7105 1 -0.387632 19.7226 -0.590618
7106 1 15.598 12.4303 17.4678
7107 1 22.7226 12.2087 0.905727
7108 1 22.238 12.4011 29.0616
7109 1 34.7134 24.0109 12.0327
7110 1 13.452 12.0812 -1.85966
7111 1 31.3132 21.8109 14.9213
7112 1 19.6391 37.4167 18.2947
7113 1 12.0622 12.1173 5.47565
7114 1 17.0667 12.7273 36.6154
7115 1 34.5441 13.3773 35.1876
7116 1 0.958818 -2.04445 8.59133
7117 1 8.45345 5.70542 36.8778
7118 1 1.6496 19.4461 34.1932
7119 1 3.62097 29.5933 8.435
7120 1 1.06378 38.0609 -0.0662019
7121 1 1.13302 28.4753 28.4403
7122 1 -2.96637 11.7996 5.47344
7123 1 0.00529762 9.06538 32.1103
7124 1 4.07107 17.231 35.7843
7125 1 26.4866 6.90293 5.0998
7126 1 -0.250125 15.0004 34.1194
7127 1 26.1742 35.0608 4.68547
7128 1 12.0604 2.33404 33.8929
7129 1 16.6959 29.1701 9.70131
7130 1 2.391 20.6372 20.9825
7131 1 35.41 33.7827 10.9241
7132 1 0.880806 34.1246 7.86417
7133 1 15.0042 35.351 37.4767
7134 1 17.6166 36.3465 3.43428
7135 1 30.4504 3.52569 13.6883
7136 1 31.7395 34.3459 28.4099
7137 1 8.2871 25.2446 18.4233
7138 1 3.88014 27.4904 33.8865
7139 1 24.8077 30.9747 16.9939
7140 1 30.9144 0.824959 32.2292
7141 1 13.2912 31.1878 15.303
7142 1 34.7093 15.9935 23.1595
7143 1 1.22314 37.9054 22.8849
7144 1 16.8121 2.19133 13.1978
7145 1 16.8888 -2.60563 35.7599
7146 1 -1.18095 35.8231 19.401
7147 1 11.6129 28.344 8.63636
7148 1 5.74323 19.8115 10.9429
7149 1 26.4536 16.9817 27.1621
7150 1 26.8021 24.4082 2.40444
7151 1 32.3049 8.00371 15.1735
7152 1 12.6166 12.7347 28.9443
7153 1 7.58337 32.0561 19.1861
7154 1 13.935 13.6525 4.07628
7155 1 24.9762 38.0385 36.0701
7156 1 9.87159 10.1976 -2.16506
7157 1 38.0967 11.9041 25.0358
7158 1 36.013 27.531 1.6541
7159 1 38.3629 2.96 -1.84966
7160 1 22.9615 18.6742 32.9182
7161 1 7.13714 7.74755 14.692
7162 1 13.8864 10.6708 34.7461
7163 1 36.9605 35.4301 17.0468
7164 1 14.7117 2.02111 32.6986
7165 1 8.6115 17.4858 16.22
7166 1 28.1712 33.0676 22.5224
7167 1 3.31019 26.8289 24.5836
7168 1 27.8506 10.5381 22.3549
7169 1 23.8384 12.2466 23.7428
7170 1 14.5832 23.2463 35.2896
7171 1 20.6511 9.96442 23.2334
7172 1 15.0439 1.73798 27.0786
7173 1 16.1638 2.29306 3.12508
7174 1 14.9731 33.7587 22.6242
7175 1 4.15937 24.697 -1.77804
7176 1 14.5706 26.8325 1.02082
7177 1 8.64402 35.2684 1.33014
7178 1 14.9368 31.1499 16.4658
7179 1 -1.81423 -2.26467 8.02589
7180 1 -1.72876 11.4826 4.79478
7181 1 27.3099 7.28986 19.5233
7182 1 14.2654 20.4674 21.7009
7183 1 6.17212 14.2959 25.1123
7184 1 20.3594 27.9684 28.4162
7185 1 27.5858 2.82925 8.66379
7186 1 27.2295 18.0889 25.9883
7187 1 22.5312 26.4821 24.589
7188 1 16.3664 30.8668 3.43589
7189 1 9.20189 34.1882 2.92728
7190 1 4.30491 12.2772 8.94558
7191 1 23.9676 9.51403 36.007
7192 1 18.4737 16.8585 4.1905
7193 1 12.3148 4.39549 15.0574
7194 1 33.5937 34.6891 15.5127
7195 1 -1.45729 5.76746 13.0397
7196 1 0.977054 7.09612 11.0612
7197 1 32.9332 13.6735 16.8926
7198 1 31.407 26.1137 6.73289
7199 1 38.2732 38.5425 6.33737
7200 1 20.3088 6.13524 0.308181
7201 1 33.1421 7.88862 12.2938
7202 1 8.3008 9.78559 12.8398
7203 1 -2.43307 -2.54775 36.7563
7204 1 35.4989 2.94106 15.9627
7205 1 10.796 31.3663 13.6687
7206 1 -0.614631 8.98017 28.5305
7207 1 33.4187 1.95875 0.858939
7208 1 34.5938 36.0072 26.2822
7209 1 23.7079 31.696 17.2353
7210 1 0.120702 11.8011 23.5002
7211 1 10.0671 19.6348 -2.92873
7212 1 -3.07101 8.90999 21.677
7213 1 0.166729 22.6687 12.1422
7214 1 24.1245 19.056 34.5165
7215 1 21.9641 14.0205 36.287
7216 1 13.3711 10.1201 26.5519
7217 1 17.4442 27.69 17.2472
7218 1 21.3434 4.4521 0.723797
7219 1 13.8078 28.9604 10.2001
7220 1 23.5934 17.1519 34.059
7221 1 20.5968 7.20221 14.0505
7222 1 4.87588 28.9667 10.9345
7223 1 -1.02079 1.35883 30.229
7224 1 24.8536 13.6422 -0.673772
7225 1 31.0816 2.30815 7.55243
7226 1 12.1646 4.34182 18.5749
7227 1 4.98697 6.06388 23.0675
7228 1 14.0386 -2.68091 26.8012
7229 1 9.88938 12.1235 32.0276
7230 1 28.9094 27.4057 24.4888
7231 1 37.8425 24.647 23.5008
7232 1 19.7639 21.6584 17.9764
7233 1 -1.64895 24.3145 14.1964
7234 1 11.1391 1.80527 -0.861477
7235 1 -2.28713 19.671 17.5404
7236 1 4.15158 10.9245 6.39077
7237 1 15.8532 -0.079014 -1.36753
7238 1 5.41783 3.93155 2.97943
7239 1 14.1847 23.4031 13.0906
7240 1 9.28538 38.1891 14.9316
7241 1 -2.38249 28.5849 31.0854
7242 1 24.089 15.0452 29.4852
7243 1 2.93713 5.60322 2.49928
7244 1 34.2372 14.6023 4.51189
7245 1 30.9337 7.63959 26.2487
7246 1 23.0847 -1.67437 29.9656
7247 1 12.7486 -1.2744 -2.29564
7248 1 9.46955 1.56961 34.5244
7249 1 29.7624 -1.49448 8.85461
7250 1 0.55961 16.6023 20.9454
7251 1 32.4144 2.30849 26.0895
7252 1 26.3269 28.0597 0.5278
7253 1 21.9414 24.7879 4.58666
7254 1 16.7103 8.1203 33.6488
7255 1 3.2054 -1.53988 17.4489
7256 1 37.6757 12.9674 27.3317
7257 1 -2.10463 23.4888 16.9055
7258 1 23.2864 11.1726 22.1052
7259 1 -2.9678 35.9432 12.3763
7260 1 28.1178 32.9367 -2.78688
7261 1 33.1063 4.70677 18.3
7262 1 10.8849 16.7198 27.6524
7263 1 28.1429 0.152135 33.8818
7264 1 14.9372 4.98869 17.5192
7265 1 27.8065 21.8966 28.7887
7266 1 25.8039 -1.72008 2.75786
7267 1 6.70603 23.8579 26.0496
7268 1 21.0989 10.0165 14.6307
7269 1 21.3562 7.15605 24.6324
7270 1 32.7001 24.7416 7.35351
7271 1 1.02119 15.9881 22.8114
7272 1 22.1893 13.6408 8.51052
7273 1 34.715 22.8451 15.6003
7274 1 29.265 29.6837 3.12309
7275 1 18.9633 1.29932 10.6637
7276 1 2.35326 11.7705 21.3946
7277 1 7.70006 25.3447 14.6788
7278 1 6.48153 26.3263 21.1702
7279 1 14.6709 0.983747 16.9866
7280 1 7.00034 36.7446 -2.11964
7281 1 2.08189 20.5526 27.8373
7282 1 2.26574 6.50736 28.0534
7283 1 4.56676 7.2844 6.73196
7284 1 34.4952 14.6282 8.44219
7285 1 15.9147 17.8981 3.57969
7286 1 16.1982 9.04692 20.9283
7287 1 2.11941 33.4997 38.0552
7288 1 31.0486 2.32327 35.6879
7289 1 33.8194 -0.851536 29.4285
7290 1 23.378 3.57448 -2.27489
7291 1 33.0229 8.43724 10.3463
7292 1 33.948 21.2659 13.7873
7293 1 29.5988 21.3676 32.6714
7294 1 35.5363 19.3209 17.4984
7295 1 7.36863 32.4704 8.42726
7296 1 5.1912 16.0222 14.8688
7297 1 28.0972 22.9824 24.0447
7298 1 31.1336 26.53 31.281
7299 1 29.4194 34.0403 9.50592
7300 1 19.7831 0.826971 5.29898
7301 1 12.4125 27.5279 3.63071
7302 1 2.89563 37.134 17.1549
7303 1 7.28225 29.3594 36.7844
7304 1 21.438 8.71172 37.2235
7305 1 19.0009 4.10177 25.8226
7306 1 -1.81177 31.2202 15.2568
7307 1 16.0458 36.3718 25.4332
7308 1 14.9149 24.8607 4.85661
7309 1 17.2267 7.16715 -0.186923
7310 1 23.4139 0.405201 19.338
7311 1 -2.70441 1.86486 26.9482
7312 1 4.41248 15.3577 29.1626
7313 1 7.45357 38.0695 0.335875
7314 1 17.5628 14.0531 -0.256991
7315 1 34.2299 26.0061 9.67004
7316 1 29.8304 8.10793 29.3221
7317 1 -0.834533 2.68477 0.10587
7318 1 38.2118 8.42676 25.2567
7319 1 29.6747 3.96953 10.4335
7320 1 0.848458 3.95364 19.2877
7321 1 -0.00461943 7.70285 38.3954
7322 1 29.3527 16.9002 4.8828
7323 1 1.965 26.617 28.5215
7324 1 31.3739 0.537849 22.5303
7325 1 27.4917 7.17368 -2.0282
7326 1 30.2766 28.5649 -2.87646
7327 1 32.9575 11.4254 -2.4078
7328 1 32.0271 28.2082 5.32537
7329 1 18.438 36.8479 36.6062
7330 1 27.2097 14.6753 -1.23517
7331 1 34.7461 8.77257 26.2418
7332 1 13.1573 -2.39354 30.2569
7333 1 -2.32444 -2.2973 3.92113
7334 1 37.8925 24.3228 18.9783
7335 1 19.4808 6.0966 23.2854
7336 1 25.5281 29.3557 13.531
7337 1 8.58924 4.45027 14.7756
7338 1 3.90388 1.40367 13.7514
7339 1 14.9485 34.9541 11.3474
7340 1 15.9917 19.2755 31.6105
7341 1 28.7639 20.5726 35.4963
7342 1 7.8917 -1.83809 31.0842
7343 1 17.8441 34.4076 25.7013
7344 1 36.4715 25.8463 -2.7062
7345 1 10.2426 21.3495 3.71132
7346 1 7.64398 15.7608 8.92216
7347 1 31.9232 10.1243 4.78428
7348 1 8.94669 7.6552 15.6389
7349 1 9.02208 13.5821 15.2184
7350 1 6.92416 9.93259 22.9122
7351 1 7.7721 3.46704 23.7242
7352 1 15.358 0.226525 33.3585
7353 1 31.3297 17.263 9.5298
7354 1 26.266 17.0607 32.2027
7355 1 26.5093 0.985771 21.9265
7356 1 -1.02342 38.282 29.2181
7357 1 0.635498 1.79083 13.8421
7358 1 32.2409 38.1292 35.4369
7359 1 6.18618 3.39739 27.2073
7360 1 27.2393 27.049 9.93628
7361 1 0.0633497 -1.31953 17.6675
7362 1 4.6157 3.8857 12.2063
7363 1 16.9684 8.6301 37.5521
7364 1 28.3479 34.2122 11.2151
7365 1 12.0158 27.216 7.97721
7366 1 20.181 22.8409 33.779
7367 1 17.0692 -0.25389 9.87353
7368 1 0.671026 26.0895 7.44603
7369 1 16.2276 12.149 34.0035
7370 1 15.2251 16.7289 32.9658
7371 1 23.5154 14.2048 3.9812
7372 1 -1.32415 5.03656 6.42726
7373 1 13.1539 24.0887 -1.35354
7374 1 10.7974 3.65934 36.2151
7375 1 31.632 13.6813 13.4875
7376 1 16.7579 11.4571 2.30324
7377 1 -1.93536 -2.06984 -1.92846
7378 1 32.9038 29.5312 17.9877
7379 1 4.09134 3.95507 2.50967
7380 1 14.1698 3.1581 -1.35185
7381 1 -1.25269 25.3845 12.5294
7382 1 17.5136 -1.45668 3.76645
7383 1 31.3365 33.7291 16.5014
7384 1 34.0204 37.5723 2.83257
7385 1 18.7001 14.9209 -1.70035
7386 1 31.0509 13.6222 17.6983
7387 1 5.19174 32.2236 7.25741
7388 1 -0.554043 20.8806 5.87808
7389 1 37.8671 13.698 18.3912
7390 1 38.1853 5.70192 7.38038
7391 1 -1.43824 34.136 38.135
7392 1 0.547316 22.2508 29.1048
7393 1 1.89675 34.575 32.8424
7394 1 13.3635 -2.64485 10.4569
7395 1 13.819 13.204 13.148
7396 1 32.8094 29.7193 21.8885
7397 1 18.5634 1.74788 29.8653
7398 1 7.02024 16.7957 11.1081
7399 1 3.49489 0.0709377 20.3421
7400 1 33.9895 27.525 37.6914
7401 1 3.75324 18.2725 11.6977
7402 1 19.0445 4.06841 19.5962
7403 1 12.9329 31.4395 19.9859
7404 1 35.6613 18.361 22.5086
7405 1 21.1926 5.33639 3.27486
7406 1 14.0087 -0.623627 -0.85535
7407 1 31.4093 17.0497 12.5456
7408 1 26.5078 28.7878 36.1206
7409 1 34.3027 6.87756 20.6267
7410 1 33.887 31.0055 28.5767
7411 1 16.3394 19.2473 10.0455
7412 1 21.6339 34.4461 15.046
7413 1 0.681219 36.4673 8.89599
7414 1 -1.50676 10.1759 26.1791
7415 1 0.904071 -2.92749 24.569
7416 1 17.9183 26.5551 29.1783
7417 1 31.6547 9.78218 20.0611
7418 1 5.3696 25.0852 13.0573
7419 1 18.178 34.9583 20.8491
7420 1 9.1791 2.90002 2.29551
7421 1 34.5724 27.2223 18.1145
7422 1 4.91042 6.58266 3.92016
7423 1 0.319604 13.9595 -0.833176
7424 1 11.0506 14.3318 23.6521
7425 1 7.83647 3.66036 29.3932
7426 1 25.0365 4.9278 6.77886
7427 1 6.5615 26.468 -2.18423
7428 1 9.13079 32.3268 33.41
7429 1 35.8705 4.07617 31.3479
7430 1 30.2603 6.13264 14.8737
7431 1 14.4205 7.9577 38.1233
7432 1 24.4962 16.5259 8.04308
7433 1 -0.889799 14.8849 31.5198
7434 1 36.7398 6.64848 36.2492
7435 1 36.1931 31.0765 16.1013
7436 1 37.0698 -1.65283 -1.71441
7437 1 19.3679 4.50285 11.4778
7438 1 13.8391 3.36319 2.21998
7439 1 30.2476 25.3164 37.4351
7440 1 0.754358 28.9206 8.14533
7441 1 33.0463 13.8903 24.0238
7442 1 6.29959 -1.1269 12.9988
7443 1 3.20453 2.90014 38.7365
7444 1 24.8632 25.5964 24.7347
7445 1 15.4243 7.10632 28.7971
7446 1 0.887933 1.87399 -0.577693
7447 1 34.0899 36.9958 24.5857
7448 1 3.67899 26.3712 21.6385
7449 1 27.0898 15.6209 17.5466
7450 1 31.4364 33.1172 3.39012
7451 1 35.7349 34.0428 32.5337
7452 1 9.34532 30.7201 2.97679
7453 1 29.0527 13.0036 15.5597
7454 1 3.80718 11.9039 27.103
7455 1 31.1297 10.2278 30.0688
7456 1 15.0036 24.2599 28.3306
7457 1 25.3696 9.18072 -1.81879
7458 1 34.7011 37.666 -3.002
7459 1 23.3402 33.6382 7.81699
7460 1 14.9116 19.8528 18.7137
7461 1 28.6406 23.5314 2.56205
7462 1 4.11397 34.7856 8.37347
7463 1 22.7873 36.5595 5.03068
7464 1 -2.86307 18.4775 8.80755
7465 1 17.5978 36.3651 11.6231
7466 1 33.4076 15.6588 34.0724
7467 1 -1.656 28.5016 29.2052
7468 1 0.0401273 23.5611 3.60895
7469 1 26.7318 -2.34193 31.5302
7470 1 24.0853 9.78509 31.5908
7471 1 -1.18253 22.7259 31.0178
7472 1 35.3397 9.97728 6.02136
7473 1 35.9976 27.6378 28.0233
7474 1 1.43289 17.5145 34.7229
7475 1 24.3916 18.5322 2.79834
7476 1 -2.01383 13.142 9.90141
7477 1 32.4657 7.66576 -2.74357
7478 1 31.8347 16.8374 32.3389
7479 1 28.44 -0.870518 7.48566
7480 1 25.3386 29.6311 25.4783
7481 1 16.0956 22.1217 10.1684
7482 1 35.8824 24.6726 1.9026
7483 1 10.322 20.2276 8.22342
7484 1 23.2389 5.47379 6.10012
7485 1 19.5709 16.4511 0.49548
7486 1 3.5765 21.572 19.6707
7487 1 2.5122 22.9838 32.2608
7488 1 32.2479 -0.808522 35.658
7489 1 8.22612 24.6717 3.17891
7490 1 19.9103 10.6902 38.7477
7491 1 17.4168 31.001 21.4113
7492 1 1.89539 36.9738 8.66675
7493 1 8.35933 23.0914 33.8127
7494 1 5.26673 27.5861 3.34817
7495 1 22.5926 2.47275 4.1721
7496 1 30.3993 36.0452 19.8523
7497 1 5.8497 15.7624 -1.58441
7498 1 5.4994 13.2401 35.4993
7499 1 13.8141 12.4217 35.6818
7500 1 24.658 38.0876 32.4082
7501 1 25.8154 6.50188 23.6442
7502 1 10.4534 27.8458 23.534
7503 1 8.43399 28.078 -0.751478
7504 1 26.4345 18.9782 29.8036
7505 1 7.38334 17.9374 14.249
7506 1 4.20865 5.74988 7.97012
7507 1 28.6011 17.4166 38.5157
7508 1 1.23747 1.38646 33.8612
7509 1 23.1593 26.2764 -0.711538
7510 1 13.2664 -2.60866 2.62681
7511 1 34.273 -0.808488 -1.4028
7512 1 28.7587 7.48773 20.9356
7513 1 23.1918 11.2248 15.521
7514 1 24.7975 28.0616 8.16806
7515 1 1.39383 30.0559 3.15794
7516 1 3.42982 33.866 28.2602
7517 1 37.3987 36.8083 38.4269
7518 1 24.2882 1.42042 1.86129
7519 1 -1.3455 37.599 30.4179
7520 1 31.3987 34.8771 11.324
7521 1 7.54365 8.67101 12.945
7522 1 33.5129 25.4695 16.2421
7523 1 0.514799 13.4992 2.06994
7524 1 -1.61309 7.1815 20.8233
7525 1 1.15103 35.0287 17.9163
7526 1 5.854 15.9654 6.40177
7527 1 30.6771 13.2789 11.7572
7528 1 25.392 37.4099 28.7947
7529 1 12.0999 5.33126 4.53281
7530 1 16.7151 18.0293 19.8464
7531 1 4.2081 36.3325 20.9125
7532 1 20.243 29.0716 7.82763
7533 1 32.3298 16.9902 4.60041
7534 1 33.9622 -1.98898 18.1953
7535 1 38.581 29.1417 28.1772
7536 1 6.67041 2.02103 29.4884
7537 1 35.2356 34.156 25.8919
7538 1 23.316 19.8867 23.0085
7539 1 14.3235 38.5137 -1.50855
7540 1 9.27136 4.5041 3.48725
7541 1 15.3249 30.6977 5.18115
7542 1 34.5465 31.8017 5.19989
7543 1 18.2423 22.4824 -1.50875
7544 1 5.76398 14.5891 20.6866
7545 1 13.37 17.6608 23.1533
7546 1 34.359 12.7015 31.8571
7547 1 14.2579 34.4792 21.6588
7548 1 32.3667 15.8596 -1.85493
7549 1 25.1242 25.3803 16.001
7550 1 -2.62848 28.4635 3.98445
7551 1 16.5343 32.419 24.642
7552 1 21.374 5.58855 29.6467
7553 1 10.1105 2.57228 15.5033
7554 1 25.6832 23.7722 11.0148
7555 1 -1.1255 -0.302583 0.628467
7556 1 16.2583 1.50588 19.663
7557 1 25.7686 -1.29338 23.9484
7558 1 13.7107 -2.15631 16.2115
7559 1 0.212236 8.62007 22.2085
7560 1 15.3478 34.8512 14.5123
7561 1 18.301 30.4067 25.4773
7562 1 10.1692 3.56046 5.95455
7563 1 5.2273 27.28 36.102
7564 1 26.7666 25.406 -1.39638
7565 1 36.679 27.2949 30.6844
7566 1 30.988 23.1864 18.7645
7567 1 37.6551 30.7968 38.1976
7568 1 13.8282 37.5621 37.8471
7569 1 38.6345 37.4026 19.0735
7570 1 10.1123 10.1165 17.688
7571 1 16.557 0.247508 0.497526
7572 1 14.4644 19.9835 15.6137
7573 1 21.4275 20.4592 3.23641
7574 1 3.29638 36.2366 -1.46615
7575 1 0.758979 27.7028 4.79674
7576 1 12.7961 13.0863 38.3935
7577 1 11.5458 19.8686 30.2781
7578 1 35.4421 35.6859 -0.366936
7579 1 17.4811 3.10914 7.23896
7580 1 -1.70807 8.15344 5.6991
7581 1 12.9735 7.32474 33.4515
7582 1 19.7347 19.3564 0.121298
7583 1 3.37453 21.8836 2.50989
7584 1 1.73544 8.82213 8.72636
7585 1 1.58521 0.346817 37.5753
7586 1 32.6491 8.12352 36.3348
7587 1 32.2819 -0.255722 4.60727
7588 1 28.715 25.5407 32.4294
7589 1 4.28272 24.9094 18.863
7590 1 7.64787 32.3287 9.78377
7591 1 21.9015 29.8576 8.61091
7592 1 32.4186 2.90363 7.41058
7593 1 27.8936 27.0538 17.2698
7594 1 36.0445 35.9109 31.9191
7595 1 14.9878 35.6459 2.19427
7596 1 4.42797 14.0617 17.0113
7597 1 13.5275 -0.941821 21.3815
7598 1 38.5102 5.04066 12.9081
7599 1 16.9679 3.32087 10.345
7600 1 12.438 22.6391 13.8121
7601 1 1.50299 -0.909197 22.2788
7602 1 29.0756 21.4736 29.2715
7603 1 3.91477 16.7741 20.1792
7604 1 15.6328 14.1239 31.8844
7605 1 22.6543 27.6977 3.01624
7606 1 15.8745 6.10477 4.80147
7607 1 37.0285 -0.739881 13.1991
7608 1 6.00588 3.0236 -2.17745
7609 1 35.3502 7.22496 7.00784
7610 1 36.0456 36.0883 4.62686
7611 1 8.61599 25.4461 30.1617
7612 1 17.5072 14.7037 15.1715
7613 1 15.1096 33.1263 16.8046
7614 1 16.9837 26.2247 2.6112
7615 1 1.65504 19.3636 9.76297
7616 1 5.34983 0.0608662 19.57
7617 1 10.3779 26.1081 5.40793
7618 1 15.3496 31.8515 -0.705867
7619 1 24.2201 37.261 14.1073
7620 1 19.4749 35.2696 37.2875
7621 1 -3.00034 -2.96531 12.6759
7622 1 16.4223 9.10711 13.0293
7623 1 27.9028 21.123 9.45973
7624 1 32.5408 -1.22845 36.9611
7625 1 36.6689 16.731 -1.74021
7626 1 21.7849 4.39017 20.5622
7627 1 36.282 6.3853 25.8418
7628 1 7.09412 4.32305 20.5046
7629 1 12.5978 21.7195 16.9486
7630 1 30.8889 25.1137 3.55934
7631 1 20.7626 26.9057 20.9092
7632 1 24.6655 2.77045 2.23332
7633 1 9.87966 16.0416 28.5843
7634 1 -3.12159 27.1298 17.7572
7635 1 34.9133 -1.25439 15.3696
7636 1 -2.57185 18.6421 13.7554
7637 1 21.7936 28.2638 34.4466
7638 1 1.82636 22.5854 13.2619
7639 1 30.3144 16.5081 17.9648
7640 1 24.6113 34.6186 26.5493
7641 1 29.8041 25.2794 13.3054
7642 1 22.279 0.481297 21.006
7643 1 -1.63291 38.1277 21.6834
7644 1 13.5552 29.7536 33.8515
7645 1 24.2416 -1.66181 27.6978
7646 1 3.13274 15.4595 21.5201
7647 1 6.5037 13.4198 14.0515
7648 1 10.6214 21.5289 6.6854
7649 1 18.8693 31.4742 32.239
7650 1 30.69 15.228 6.49134
7651 1 11.0208 0.368586 38.2198
7652 1 38.7009 19.1852 27.16
7653 1 14.1337 12.945 11.1842
7654 1 1.74147 33.6263 25.9161
7655 1 33.7201 -3.02585 11.5273
7656 1 37.0493 3.59394 17.0667
7657 1 36.4314 15.4522 22.2378
7658 1 29.7772 38.498 -0.0200074
7659 1 2.3433 -0.698128 20.4703
7660 1 16.0535 27.3096 -2.92621
7661 1 7.29898 27.701 25.6165
7662 1 3.3232 6.3047 9.6795
7663 1 26.8128 5.33355 27.4454
7664 1 23.6168 -2.5962 29.3549
7665 1 8.44147 3.08306 -1.44828
7666 1 37.6751 23.881 12.2636
7667 1 14.7863 22.0002 2.95438
7668 1 2.92743 6.07325 26.9683
7669 1 36.2086 29.4237 32.6056
7670 1 3.30665 18.0486 19.9908
7671 1 -0.00110547 28.6145 25.8319
7672 1 13.4355 32.6253 3.88328
7673 1 2.03945 10.8155 4.49248
7674 1 18.3338 13.2588 -2.75899
7675 1 -3.09105 5.29076 5.49636
7676 1 9.6174 10.3917 3.75302
7677 1 14.3981 28.983 23.508
7678 1 16.2134 5.08873 3.10635
7679 1 4.28274 8.63554 10.574
7680 1 13.8846 -3.02284 18.0177
7681 1 6.7891 9.95483 -0.98414
7682 1 6.53612 0.881929 6.83724
7683 1 2.75179 37.4365 15.604
7684 1 36.1177 26.4378 19.082
7685 1 20.5614 25.6306 38.0323
7686 1 -0.235471 31.6428 22.3334
7687 1 22.3163 11.8278 2.86001
7688 1 6.46714 33.6651 33.9095
7689 1 21.6978 20.1354 8.18888
7690 1 -1.81806 6.13452 10.5348
7691 1 32.1603 23.9384 10.0477
7692 1 19.3698 20.8798 25.0902
7693 1 17.5972 9.53338 23.6823
7694 1 32.0254 18.1809 2.98289
7695 1 35.3889 17.73 -0.502388
7696 1 13.6087 15.4485 4.96694
7697 1 34.5259 32.453 30.5099
7698 1 8.24826 34.6677 31.676
7699 1 24.8701 38.5438 22.1009
7700 1 16.4203 31.1583 0.854882
7701 1 29.2162 18.6995 22.8449
7702 1 0.597671 15.4882 14.3903
7703 1 14.8394 2.65764 -0.412526
7704 1 34.7726 24.2602 30.9424
7705 1 10.9163 9.92279 37.9843
7706 1 37.8505 5.69994 15.7627
7707 1 1.89111 27.2445 33.6876
7708 1 1.5683 35.3753 20.8658
7709 1 -2.11111 25.1645 -3.06492
7710 1 37.6599 22.0427 24.6345
7711 1 14.4968 1.95635 18.7057
7712 1 38.3456 23.6825 32.3661
7713 1 5.35349 32.7703 19.4822
7714 1 32.7567 5.4022 23.3974
7715 1 7.3739 17.9977 1.97786
7716 1 0.809313 3.83709 -0.106087
7717 1 -2.77305 6.7188 28.3529
7718 1 10.943 14.0429 25.6435
7719 1 2.46784 -0.499437 3.86367
7720 1 26.4434 32.8625 15.8204
7721 1 38.4402 35.1646 4.6846
7722 1 0.655661 33.8228 34.252
7723 1 2.7739 29.1202 32.3641
7724 1 7.14015 19.7128 30.8069
7725 1 -2.12942 5.65896 33.9144
7726 1 34.7448 19.0352 10.32
7727 1 8.87324 13.3435 10.0858
7728 1 21.8552 2.28119 2.84693
7729 1 34.691 33.5319 3.26428
7730 1 10.0589 5.62663 7.67547
7731 1 31.1256 15.2007 36.2166
7732 1 3.41906 12.5255 21.8381
7733 1 22.9078 -2.62588 4.70538
7734 1 17.0139 17.4211 37.7527
7735 1 11.9392 19.2908 1.66609
7736 1 8.95981 34.0583 25.4948
7737 1 33.0865 -0.697093 15.9652
7738 1 37.0831 -1.14424 -3.01753
7739 1 36.5425 8.95274 2.41447
7740 1 17.4558 12.5672 11.9394
7741 1 11.8131 22.1698 34.5519
7742 1 24.7984 17.7305 11.2437
7743 1 16.5344 19.6982 2.93651
7744 1 26.3069 25.6749 26.1535
7745 1 12.3018 -0.875613 25.3477
7746 1 12.2662 6.27583 0.650976
7747 1 11.8358 2.73503 3.65763
7748 1 9.41424 -0.979369 29.1323
7749 1 32.4456 22.8124 29.9775
7750 1 25.3133 34.9534 24.6989
7751 1 34.1379 23.9098 25.8121
7752 1 32.9075 26.0459 11.1937
7753 1 2.16126 24.2779 23.1905
7754 1 5.8059 20.7224 28.6261
7755 1 16.9535 33.9168 13.1697
7756 1 37.0092 12.4538 12.8066
7757 1 -2.9141 12.4312 15.8521
7758 1 35.8164 14.317 38.1863
7759 1 19.5286 0.10865 19.8304
7760 1 21.2012 -1.34726 30.5135
7761 1 17.5945 36.8681 1.48255
7762 1 33.7049 31.228 17.2227
7763 1 20.8776 2.84956 30.6866
7764 1 -2.17012 6.17325 37.6077
7765 1 27.8764 37.2756 0.802589
7766 1 36.9135 22.0356 12.3226
7767 1 38.0187 2.63575 21.3163
7768 1 13.8697 27.385 7.20393
7769 1 37.5362 32.9267 35.1002
7770 1 -1.98917 8.53877 7.06109
7771 1 23.5846 5.3894 16.1696
7772 1 33.856 19.0529 31.6925
7773 1 17.5141 -0.227389 3.3828
7774 1 5.64994 37.9369 3.44415
7775 1 5.06211 7.72383 24.2154
7776 1 25.516 4.60216 27.0847
7777 1 11.9018 8.29162 23.3736
7778 1 1.18576 34.1527 31.7184
7779 1 13.6844 16.4938 8.57407
7780 1 27.8982 24.2648 8.99605
7781 1 34.6947 5.5011 20.7765
7782 1 -0.655243 30.0076 10.4739
7783 1 25.9206 6.67386 6.40476
7784 1 11.1952 21.3027 35.4214
7785 1 14.1474 24.5546 19.5336
7786 1 25.4392 11.3051 37.9909
7787 1 22.8558 -0.184953 7.53781
7788 1 1.25104 4.7161 22.0614
7789 1 29.4592 30.7519 32.0106
7790 1 26.573 11.6475 10.3393
7791 1 6.84255 4.54077 1.70351
7792 1 13.393 5.50467 30.924
7793 1 15.3892 21.6682 38.6528
7794 1 38.2233 1.87501 24.224
7795 1 30.9958 17.5612 38.0499
7796 1 15.2626 35.9538 30.7329
7797 1 19.5467 31.0099 37.4049
7798 1 7.7933 22.988 23.2721
7799 1 8.99636 2.05023 37.6478
7800 1 36.078 20.7703 24.504
7801 1 1.75266 31.7112 25.3099
7802 1 3.75474 11.5287 3.81274
7803 1 15.5227 28.8406 36.7908
7804 1 24.7987 4.83144 -2.9917
7805 1 2.93939 1.9635 19.9107
7806 1 10.2383 27.9241 12.7424
7807 1 16.2659 12.739 13.5382
7808 1 10.7273 31.5552 4.14733
7809 1 10.0217 26.9099 25.2684
7810 1 27.1744 28.9305 7.66369
7811 1 22.2347 24.4536 24.478
7812 1 16.5014 27.2674 13.3919
7813 1 1.57153 29.0871 32.9575
7814 1 1.81084 26.8666 22.2537
7815 1 36.7459 37.9113 4.1797
7816 1 14.9946 34.0174 31.2325
7817 1 19.356 37.3054 30.9929
7818 1 33.7543 34.2882 32.1948
7819 1 36.8999 16.7025 2.00656
7820 1 35.1618 38.7146 29.4813
7821 1 -1.13639 -1.03728 24.686
7822 1 24.3062 16.977 30.0779
7823 1 15.3546 10.0117 -1.77748
7824 1 10.7804 25.4884 15.491
7825 1 14.4843 1.47787 24.0256
7826 1 31.6203 11.9332 27.5194
7827 1 19.0168 16.8068 19.3394
7828 1 11.717 20.5562 -2.24373
7829 1 4.08835 16.7915 5.98225
7830 1 21.2917 6.51357 34.9546
7831 1 7.56923 1.91978 -2.81206
7832 1 18.1763 -1.89222 13.3712
7833 1 25.5296 1.92576 12.6432
7834 1 28.8461 19.0064 26.7252
7835 1 29.5979 12.6301 0.169509
7836 1 10.7811 35.9304 4.94305
7837 1 5.87044 5.3808 15.9004
7838 1 13.2108 19.5076 4.66929
7839 1 29.3517 22.4454 34.9927
7840 1 0.494529 16.7858 7.92259
7841 1 16.7682 5.40478 20.5484
7842 1 1.19223 26.9461 30.8373
7843 1 15.6038 8.29344 9.63584
7844 1 18.877 36.1814 0.873837
7845 1 17.3928 35.5863 22.597
7846 1 1.92088 36.0331 37.3458
7847 1 18.0738 22.3248 16.1463
7848 1 6.67383 8.69634 22.2342
7849 1 31.0209 28.0014 10.919
7850 1 36.3575 26.3413 -1.44826
7851 1 21.3147 5.53152 26.8884
7852 1 15.6874 10.0448 27.7224
7853 1 28.8747 1.84555 15.6528
7854 1 23.2393 7.30991 13.4182
7855 1 26.1481 35.5419 -0.546877
7856 1 16.9024 21.4944 8.47124
7857 1 30.6788 4.46882 30.554
7858 1 30.8078 18.2497 -0.094707
7859 1 4.05513 8.87165 19.0369
7860 1 32.6631 16.6551 12.6892
7861 1 6.24339 35.278 -1.05231
7862 1 25.5876 32.2232 12.9218
7863 1 6.1826 34.0131 1.15058
7864 1 6.21772 32.9651 6.80312
7865 1 38.0804 35.1806 -1.25427
7866 1 22.1755 30.9374 10.2862
7867 1 2.52658 3.00124 15.8539
7868 1 12.2459 16.9051 23.4673
7869 1 15.1309 26.1533 37.5746
7870 1 1.13928 19.9297 15.2736
7871 1 23.4693 33.066 15.8027
7872 1 19.4719 26.5256 8.37308
7873 1 35.1666 11.1044 11.6269
7874 1 6.55662 27.0601 16.7036
7875 1 17.0126 20.0436 12.6458
7876 1 17.4733 4.05358 -1.1173
7877 1 31.5382 14.1972 30.7066
7878 1 29.0293 34.1004 4.85694
7879 1 0.450725 13.0313 28.2366
7880 1 -0.453906 6.93496 0.960152
7881 1 12.8147 34.0291 26.3179
7882 1 12.9136 24.5806 20.1844
7883 1 26.9323 38.0933 7.25004
7884 1 30.8912 31.0476 19.5129
7885 1 33.911 29.1668 4.07455
7886 1 -2.29294 19.4743 7.8576
7887 1 15.8569 32.4384 37.8477
7888 1 19.2509 9.76522 2.17893
7889 1 15.3255 13.9897 19.2923
7890 1 16.0788 27.7283 0.0139348
7891 1 0.0982062 12.2305 34.0584
7892 1 2.61527 17.1882 31.0751
7893 1 35.8298 11.4084 1.81217
7894 1 31.8428 0.740068 9.29848
7895 1 4.37628 27.564 27.2474
7896 1 8.33874 9.49006 10.1774
7897 1 21.6826 -0.667987 2.97185
7898 1 7.5568 20.415 3.53745
7899 1 28.751 16.1686 23.8704
7900 1 37.3686 9.37591 18.954
7901 1 30.4599 7.13399 24.3628
7902 1 7.71976 22.2985 5.98535
7903 1 28.5769 36.8485 27.8328
7904 1 -1.76426 18.1813 20.118
7905 1 18.4147 18.6874 13.1317
7906 1 21.3713 1.85343 16.4247
7907 1 25.1246 13.9888 35.6561
7908 1 -2.67004 17.5745 28.9677
7909 1 35.9171 27.1688 37.758
7910 1 19.0727 -3.13615 5.4767
7911 1 11.7847 11.3601 26.6239
7912 1 7.52521 12.1153 3.4776
7913 1 15.0489 18.1142 32.9628
7914 1 24.7415 -1.98743 7.27029
7915 1 4.43986 10.7651 18.4553
7916 1 5.22369 -0.895635 2.0745
7917 1 29.9307 12.1927 -1.77688
7918 1 35.7196 -2.81235 24.1005
7919 1 31.4415 20.2259 30.4555
7920 1 4.89828 -3.16348 8.89639
7921 1 13.0973 26.6857 15.5661
7922 1 8.98074 7.05391 35.4304
7923 1 30.3173 8.62834 -1.28436
7924 1 1.03703 -1.30913 35.012
7925 1 9.93955 23.8398 36.1455
7926 1 20.4459 34.8909 10.9776
7927 1 29.8852 36.6319 18.6934
7928 1 30.9014 20.9638 32.2302
7929 1 5.53954 20.0357 16.321
7930 1 3.08717 2.36226 0.134671
7931 1 21.991 37.169 33.3946
7932 1 34.4436 -1.12343 -0.0118979
7933 1 22.6688 19.7522 29.6567
7934 1 33.2092 29.7489 38.4943
7935 1 37.3009 32.296 22.68
7936 1 27.7997 0.833092 6.6434
7937 1 20.7714 14.2675 0.148842
7938 1 26.3683 4.12722 20.6657
7939 1 28.8723 1.42654 24.5912
7940 1 37.3558 12.7507 4.53639
7941 1 14.8844 2.68171 8.46958
7942 1 17.3722 2.29449 33.6645
7943 1 17.4523 -2.53007 33.8176
7944 1 34.5402 18.1874 18.8158
7945 1 10.3146 8.01036 37.7829
7946 1 2.13914 32.3536 31.6623
7947 1 24.8942 22.8243 -0.924456
7948 1 7.72035 7.43952 -1.49262
7949 1 33.7338 4.27589 -0.238748
7950 1 32.1941 34.6316 9.47266
7951 1 19.6642 18.6252 10.2853
7952 1 20.001 13.5719 38.0098
7953 1 -1.62121 13.8022 38.0752
7954 1 -2.82529 33.3702 36.3817
7955 1 14.2059 11.3921 0.942039
7956 1 22.0422 22.9184 -2.0823
7957 1 -3.0469 11.13 28.795
7958 1 15.7127 6.68312 34.6685
7959 1 24.0427 31.7433 4.41181
7960 1 3.71889 13.4736 -2.97872
7961 1 22.8984 9.14924 19.8843
7962 1 9.56272 -2.35611 8.56351
7963 1 37.9945 18.1322 35.7724
7964 1 23.9215 3.15954 14.5358
7965 1 12.6265 4.30375 -1.82408
7966 1 31.4481 15.0405 20.2411
7967 1 4.48461 38.4348 -2.94222
7968 1 14.252 -2.66421 29.5498
7969 1 25.3696 4.70343 24.4408
7970 1 22.9484 11.7835 8.55456
7971 1 19.8428 14.7926 13.0917
7972 1 33.5935 31.2311 37.215
7973 1 19.0522 34.7519 29.2641
7974 1 5.54139 2.46985 11.0613
7975 1 36.3981 1.74589 3.33374
7976 1 8.03415 17.7678 11.4554
7977 1 21.4427 16.8475 18.5187
7978 1 16.4756 32.637 13.2389
7979 1 33.7772 18.7314 33.6654
7980 1 5.20279 26.0925 34.4601
7981 1 35.6988 2.26028 -2.44565
7982 1 37.1567 22.128 9.03881
7983 1 34.5354 29.3306 35.3001
7984 1 5.4252 33.0056 15.0975
7985 1 4.84469 6.0933 27.6326
7986 1 6.0947 -2.03286 7.77486
7987 1 5.18534 7.51839 21.6603
7988 1 25.112 31.6985 -1.01706
7989 1 18.5077 8.09218 36.3425
7990 1 0.99529 18.4342 28.9002
7991 1 25.8956 24.4021 9.10779
7992 1 29.6358 3.03215 25.5695
7993 1 27.0311 19.0239 21.0306
7994 1 -1.24769 36.5399 14.0992
7995 1 18.7793 32.8893 28.5673
7996 1 30.8428 -2.87125 -0.684423
7997 1 27.9991 10.4242 -2.13741
7998 1 2.79139 8.54842 23.3423
7999 1 30.6901 0.996444 34.2394
8000 1 29.0422 2.06036 12.5057

Velocities

1 -0.431232 -4.55793 -7.0328
2 -1.56994 -6.47315 -5.61236
3 4.33329 0.998492 -3.65245
4 7.13409 -2.26451 -2.08855
5 1.94293 3.55674 5.71432
6 -1.10572 -2.93516 -6.06312
7 1.35959 -6.65726 -4.63208
8 -9.74296 -0.169217 -0.476964
9 -5.29408 3.5745 3.20565
10 -2.94613 -2.09952 -2.51959
11 -5.36176 1.78765 6.44292
12 -1.17416 -5.55273 -5.34311
13 3.28009 4.56969 0.0936569
14 -4.11114 4.0777 -3.16659
15 -7.70195 -6.815 0.855194
16 -2.81154 -2.38704 -1.1611
17 -8.78614 -0.963957 3.06007
18 1.37776 0.0263543 2.0952
19 2.62307 -1.58608 -3.10085
20 -2.33361 2.15951 -9.98365
21 4.48557 10.1624 -1.0215
22 2.74899 -2.81501 -8.30177
23 0.263211 -2.5995 -11.1817
24 4.2409 1.35842 4.89229
25 4.70064 10.3535 8.34034
26 -1.7944 3.26063 -1.55347
27 -0.0200936 7.73644 -4.97676
28 -1.14107 -5.43612 -2.66555
29 7.38616 4.36764 -4.65005
30 -12.6448 0.0702451 1.94366
31 -0.883306 -7.62345 9.59169
32 9.65999 2.02987 -1.34836
33 0.743955 10.0921 -3.83705
34 -1.89162 -2.83004 7.94909
35 -1.96698 -11.9256 3.18704
36 -3.43717 4.43858 8.86509
37 -0.264318 -7.50783 1.26514
38 9.92766 8.02021 -0.839938
39 -2.02727 3.01329 1.58962
40 0.871807 -9.97893 1.27477
41 3.81758 4.01678 8.03714
42 -1.96698 -5.6915 6.93351
43 5.30143 8.79609 6.43455
44 1.48869 0.105622 4.29955
45 -1.45753 -1.72582 5.4585
46 0.623471 -0.00345655 -4.15621
47 3.31471 10.8569 -7.42909
48 3.24769 -0.193956 2.1068
49 -6.15186 -2.25448 2.61242
50 4.42969 5.42759 7.35691
51 -2.9681 -3.51547 -6.13637
52 2.56965 2.50283 2.31311
53 -2.7835 -3.86583 -6.45153
54 2.65079 5.70831 -4.17909
55 0.234445 -3.35024 5.46402
56 -10.1711 1.11046 6.05754
57 2.55609 3.11098 -0.980607
58 2.71753 7.71799 -7.89995
59 1.11359 -1.43837 5.40062
60 -1.06692 0.971364 7.70004
61 7.47521 -4.79622 0.761531
62 7.2358 -1.78209 6.01776
63 -5.10902 -5.24831 -0.0883215
64 -8.5038 -1.78453 4.37016
65 3.42381 2.73827 7.96337
66 1.98797 3.2046 -1.18146
67 4.64132 -3.08176 -2.50704
68 -6.68323 5.53629 0.828248
69 -2.21646 1.0398 -0.916843
70 1.42508 4.28346 -0.966989
71 -3.99702 -1.8703 -4.76199
72 -0.00885758 3.95032 10.5637
73 -4.76761 -1.15041 3.07147
74 -2.76245 2.14787 8.73999
75 -0.657041 5.04506 2.85181
76 -1.36513 6.88451 -7.95102
77 1.46235 -4.82024 3.91842
78 -4.36424 -2.40147 -4.7967
79 5.84942 -4.8438 -3.71399
80 0.753207 -0.822222 1.57367
81 0.41186 3.14039 6.48736
82 2.22433 5.56409 -4.14432
83 -0.688524 -0.687476 0.971332
84 5.58046 -3.25211 7.23074
85 2.86203 6.7538 2.63018
86 -1.2686 -0.662848 -0.37753
87 -0.458602 -7.46603 -4.71356
88 -0.712524 -1.37374 -2.40505
89 -0.999528 -1.36947 1.34371
90 3.67844 0.768895 -3.77603
91 -1.42657 -2.21996 -7.0389
92 -1.27701 -1.10543 1.11958
93 -4.64374 -5.27613 1.60435
94 5.49669 0.618289 5.24865
95 -1.92043 -3.37589 -1.6656
96 4.60794 0.784722 3.42028
97 -7.10302 -0.27622 -4.30219
98 7.10629 2.2979 0.624678
99 -3.9965 9.1183 0.157594
100 -1.09782 2.94076 5.59739
101 -10.3151 -0.844481 -1.07061
102 1.34401 0.36095 -7.32855
103 -3.24477 -0.531012 -4.19326
104 -4.02416 1.89506 -3.06598
105 -1.73135 4.49693 3.3311
106 4.86252 -1.10687 1.56849
107 3.99977 -4.46436 -5.59882
108 -0.906322 -10.5757 0.771835
109 0.576675 -0.219225 2.93455
110 0.570065 3.6584 -1.64311
111 -4.27467 1.71983 4.93455
112 -3.19635 4.46818 -6.43794
113 0.665875 3.07183 -2.52274
114 -1.83625 -7.03018 3.52849
115 0.163691 1.45476 -3.84499
116 0.0342911 -0.874968 1.27235
117 -5.30691 0.0192751 0.333521
118 -2.26618 5.51352 -4.52773
119 -1.78148 -4.65731 -3.65473
120 -1.33142 -5.9292 3.94884
121 -0.502796 0.00617278 3.51613
122 10.8867 -3.13474 -5.58479
123 -0.695241 -3.76858 5.68968
124 2.19269 3.99697 -3.56074
125 1.91339 3.94667 -2.04737
126 8.2293 2.88448 3.7492
127 -1.5621 3.10572 -4.21555
128 3.64362 6.5476 -1.26248
129 -1.73761 2.28617 12.5509
130 -7.6296 1.44087 -2.95097
131 2.05687 -0.518876 -6.76023
132 -4.27259 -4.44904 -1.15579
133 5.00895 -0.282726 -7.13805
134 -0.613393 1.20675 4.73555
135 4.20716 -8.62161 8.20833
136 9.76658 -4.83097 10.3309
137 3.87188 -0.127517 -0.797277
138 -2.59573 4.68808 -1.91767
139 2.918 5.2981 -0.271599
140 2.19419 -1.03909 -6.83109
141 -0.893548 0.558713 -7.40189
142 6.30951 -8.10078 6.75846
143 -7.27028 8.1698 -6.26896
144 -0.425878 -7.657 1.70117
145 -2.58673 -7.95216 -0.913302
146 -4.22019 -7.31864 -4.1018
147 5.27545 3.69668 -4.90259
148 2.10793 -1.56878 0.925536
149 0.8895 5.42077 3.03194
150 -1.16102 -1.93689 -2.10554
151 2.30498 4.71794 -11.5355
152 12.7336 -0.249249 -6.36925
153 5.23781 4.44952 0.750185
154 -1.77268 1.35699 -5.64231
155 1.63683 -2.09196 13.0959
156 0.68617 8.48868 -7.94209
157 -1.99916 -5.1272 -0.219507
158 10.4609 -4.54793 2.40325
159 0.18602 5.76057 -14.53
160 1.73619 -0.143156 0.791909
161 -4.91011 4.99279 3.24103
162 3.10961 0.392994 -1.37582
163 -1.74954 4.6392 -1.31227
164 4.647 2.75328 -2.68024
165 3.98769 -4.96323 2.7448
166 -0.433463 1.16368 -7.58441
167 -2.07386 -4.80399 -9.74379
168 0.41813 0.0818147 -1.0434
169 -3.26477 3.0433 -0.107662
170 1.09271 -4.63639 7.15951
171 8.98215 3.6159 3.08587
172 -0.137796 3.65515 0.797941
173 -0.460419 -3.90609 -2.70308
174 -3.47536 -1.7033 -1.12311
175 -3.17504 1.33522 -2.21611
176 5.53134 0.923743 4.7174
177 0.898102 7.7383 5.75376
178 -5.56146 3.00669 -3.81068
179 -1.91167 -0.873447 -6.99479
180 4.77692 3.53969 1.09096
181 -0.876585 -2.77927 2.1309
182 -2.51868 4.84518 0.0651307
183 -0.810641 -3.78284 11.0003
184 2.87884 -1.43396 -3.50007
185 -5.39017 4.33491 7.15638
186 -1.95629 0.560219 -3.95384
187 0.759287 1.4405 -6.25627
188 -9.11856 -3.45869 5.29616
189 -6.91706 4.99593 -2.11577
190 -5.77165 -3.54797 -8.83562
191 8.8631 2.04088 -0.90638
192 -9.60726 3.64808 -1.42258
193 -0.755981 -3.56799 1.35386
194 4.41555 -1.07584 -1.62375
195 -7.91379 -5.22817 7.17346
196 -5.12694 -8.01434 -0.729409
197 2.92636 -5.35502 3.6821
198 4.72508 -8.47611 1.39957
199 1.03105 -1.9833 -0.251209
200 -2.37729 -1.97741 7.17738
201 -2.69824 8.76574 -3.94954
202 -0.655075 3.0036 -3.40447
203 5.09011 -11.7331 -7.70126
204 0.423142 -5.52894 0.0591004
205 -1.8951 2.12781 0.732484
206 3.51812 6.4742 3.83426
207 9.06428 -5.86729 -1.0097
208 -3.47892 -6.85258 7.04565
209 8.21333 -3.50486 -12.6732
210 3.03441 -2.9934 2.20626
211 5.14696 4.13598 -4.94239
212 0.841156 6.27414 -7.676
213 9.21396 2.2486 -5.52605
214 6.07384 -1.07752 -3.46697
215 5.74058 -0.273139 1.34011
216 6.03639 1.9012 1.17355
217 -4.48622 -1.55659 5.50276
218 0.637402 -3.37849 11.4024
219 4.34068 -0.373007 -10.787
220 -1.13088 -9.8407 13.0551
221 -6.25433 6.69105 4.31218
222 1.43303 2.34426 3.6653
223 -3.56074 -9.12361 -0.0350299
224 -9.40883 2.35874 -0.940633
225 1.18012 4.8558 -6.45286
226 7.5486 -4.01462 -0.684371
227 5.1585 -3.65848 12.1101
228 3.8013 -8.02779 8.51136
229 5.12496 -5.39965 4.93724
230 -0.489752 8.30244 0.672863
231 -6.81851 2.17592 10.3765
232 -10.4824 1.39841 4.70273
233 0.693951 6.4474 6.83255
234 -4.40951 3.2323 -5.77983
235 -1.14841 -3.5257 5.04292
236 -0.345316 -3.49457 -2.50554
237 -1.07598 -3.34375 2.17278
238 -0.687673 -2.68728 11.9635
239 -2.2566 1.65724 -3.86078
240 2.17461 3.17458 -7.52128
241 5.21023 -1.09172 1.84956
242 4.93832 2.48953 -3.2815
243 4.93644 0.218189 -0.0243088
244 3.62236 -1.48274 -11.5285
245 -5.04777 -0.0121624 0.117339
246 -2.39883 7.28258 -2.12513
247 -1.23172 -3.97874 -1.58879
248 -0.661268 6.66466 -5.5656
249 10.726 -5.31861 -2.11647
250 1.03745 4.51974 1.75947
251 -1.93131 1.46123 -2.17743
252 -1.95977 12.4217 -6.17952
253 -2.61479 -1.07284 4.24534
254 -4.58954 -3.00314 -2.5755
255 0.874676 10.3232 3.64149
256 2.43099 -0.199499 4.14006
257 -2.81614 3.78556 -1.93659
258 -5.44841 4.18684 -2.62168
259 -0.239534 5.21151 -1.95768
260 2.95131 0.959165 11.2268
261 0.681655 3.06686 6.71298
262 0.163006 1.69366 -4.36495
263 7.15514 2.58567 -5.64838
264 4.70619 1.95731 -5.51486
265 -11.7755 -6.92952 8.02086
266 -1.20922 4.24245 -0.594326
267 -3.87186 -7.99613 -4.4389
268 -0.737132 -4.09996 0.637175
269 6.42163 -4.77302 -5.66069
270 2.32057 3.54577 1.47331
271 -1.20119 -2.80368 -4.53449
272 -8.17768 4.95777 3.3706
273 -1.10824 2.44976 5.5173
274 5.88405 1.61185 10.4294
275 -1.71303 8.8781 4.87588
276 -3.85516 -5.45239 2.86851
277 -3.21038 -0.693051 -7.52348
278 -9.22022 0.0576827 -3.88094
279 7.08367 -2.60739 4.32357
280 -6.03098 -2.2773 0.508493
281 4.90342 1.1175 -1.48374
282 -8.22615 0.360048 -1.69599
283 -4.98881 7.00515 1.17954
284 4.21192 -1.06046 -2.88915
285 -2.76475 4.85557 -0.311972
286 4.21313 -6.5459 -2.55617
287 2.64274 -4.29605 -6.15435
288 -2.08717 2.37257 0.471147
289 -9.81237 -3.27989 3.18517
290 -11.1619 -14.7654 -6.95355
291 -1.3991 0.0488216 8.7313
292 -5.97914 5.62866 -4.06609
293 -7.727 3.71679 -1.77511
294 10.0766 2.31153 3.01582
295 -1.02653 -1.06243 -0.727827
296 6.27024 -7.7969 -6.25514
297 3.5804 3.77551 5.43064
298 -0.728834 -3.97419 -9.53622
299 2.86243 -1.6993 -2.84073
300 1.69421 0.785197 3.92353
301 2.05083 -9.07835 -5.83133
302 -1.50965 3.43762 -9.22155
303 -0.230041 10.3867 1.73206
304 4.72087 -0.162681 8.01478
305 -3.01948 2.02927 -14.5612
306 -9.21918 7.60288 -3.88287
307 -1.7027 -4.69241 0.891952
308 -3.57158 0.977871 1.12532
309 1.39157 -5.18018 0.547763
310 2.04746 0.0878459 1.96805
311 -4.5871 3.72123 4.67653
312 0.413314 -2.07078 3.92251
313 -5.76921 -4.18241 -9.81046
314 2.26856 -2.25817 4.09091
315 -1.68252 -1.99024 -3.68762
316 -2.25343 1.61263 -4.83106
317 -1.97317 0.368291 -1.35568
318 -1.91042 0.00169721 -5.62986
319 5.4838 -13.5338 -10.5264
320 -0.818566 7.91819 -2.16001
321 4.97762 3.74496 10.8989
322 -1.87339 7.47162 -5.23866
323 5.16318 0.0483666 -8.2146
324 -6.7059 -1.15952 6.06719
325 -1.38976 2.29661 0.96312
326 6.24782 -4.63006 -2.23237
327 -0.31491 -1.32327 -7.40608
328 -12.1224 -10.2952 0.191839
329 -5.03276 1.46081 0.0651481
330 4.19178 2.09802 -10.4246
331 -5.3724 -0.165877 -4.84833
332 -10.5608 4.57123 8.13515
333 -3.88263 0.533341 -0.106607
334 -2.29943 -3.38401 14.8439
335 6.65912 4.98127 -5.94601
336 -0.848611 7.10077 1.25376
337 5.9488 3.22312 -5.57105
338 -5.86863 -8.40453 -1.49282
339 3.03251 0.242999 3.51187
340 2.52051 -11.4064 4.7865
341 -9.58668 -11.0707 0.394913
342 9.60359 5.10829 -3.66895
343 -9.00545 13.6074 7.98335
344 -5.46991 -7.88535 3.32286
345 3.8874 -7.92914 -5.08791
346 0.00416933 -0.484543 -6.77154
347 1.07275 -17.9169 -2.41731
348 -2.65734 3.5213 1.0413
349 -3.94423 11.2429 2.5598
350 -0.245343 -0.43389 0.165248
351 5.83432 8.28171 3.18457
352 -8.719 6.86769 -3.49502
353 6.54944 8.64358 0.230594
354 0.229033 3.04419 -1.63302
355 -3.93355 -1.52686 -3.45717
356 3.14011 -1.77119 -2.54428
357 7.17973 6.35599 -4.57506e-04
358 0.273801 0.843888 8.86069
359 4.53276 0.713047 -5.79807
360 -0.524849 -6.51178 3.63791
361 -1.26314 -2.33754 2.46197
362 11.5908 1.53488 -5.81955
363 -1.01209 6.00705 -3.55633
364 -1.04602 0.302625 -4.21961
365 -4.0636 4.18248 -1.18964
366 0.493653 -2.58683 -3.33638
367 2.16201 7.05775 -0.950788
368 6.26707 0.0465627 -3.75684
369 0.80337 4.58087 3.9812
370 -5.33082 6.54116 -10.7352
371 1.09339 -3.62592 -7.1689
372 4.10167 8.38064 -0.951533
373 -7.27213 -2.69028 0.177918
374 -2.95562 0.144333 -0.00663024
375 -1.92552 5.43197 -0.119154
376 -1.13459 -3.83219 5.09261
377 -0.649517 0.518039 -11.5975
378 1.62737 -3.40099 -3.9158
379 -8.94356 3.42647 5.19908
380 -1.61633 -5.54918 -4.99367
381 1.32858 1.47059 1.6858
382 -2.98643 -6.05388 1.87906
383 -5.32978 1.95993 6.80101
384 -2.27045 0.707498 -6.29334
385 0.947046 -4.32438 5.96532
386 -2.0784 -4.67269 6.77184
387 -6.19504 -13.3495 -0.494833
388 3.50912 -1.57261 5.19204
389 -7.56624 3.08384 -5.32714
390 5.0794 -12.2583 -0.894333
391 7.91604 -2.80644 0.0112968
392 2.10401 -7.81263 0.216504
393 -4.31345 1.07203 6.27191
394 -1.7374 -10.4899 -0.706361
395 8.80872 8.80387 -6.87204
396 -6.51773 6.41478 -7.14454
397 -4.72634 -1.25375 -2.55775
398 -6.96131 2.65439 4.61192
399 -4.41836 5.73134 -4.35224
400 -3.50947 5.61118 -8.74395
401 4.29918 4.33002 -2.42223
402 -0.921107 -6.83016 2.56417
403 0.725977 1.84454 1.27326
404 -3.10151 1.18809 -9.65522
405 -5.10319 5.08451 6.44094
406 -2.26258 -5.86596 3.45016
407 -0.152023 -2.64308 9.70724
408 -2.33048 1.03243 -0.208315
409 4.83644 3.98324 -2.98102
410 11.6067 3.26814 0.552001
411 -9.606 0.522909 -2.98686
412 7.1935 2.6795 0.312177
413 -2.07655 -1.87898 12.7887
414 -0.295339 -2.58149 0.306036
415 6.62809 0.411184 -5.35851
416 -8.34188 -1.31418 4.20696
417 0.126181 6.82743 -6.97624
418 -7.72507 -0.0199086 3.04024
419 4.56328 -5.07223 2.20124
420 -1.23473 6.94286 -2.25495
421 -2.60397 3.78229 3.82176
422 8.86965 -1.38793 -2.28813
423 5.43971 3.06354 6.11081
424 0.225179 -4.91472 2.14934
425 -0.910229 1.35895 -6.64713
426 5.4077 -0.181401 -2.49067
427 -3.33248 -5.60806 -1.65649
428 4.17695 0.981505 5.61232
429 -0.869562 -7.48458 -9.51095
430 4.60524 6.23369 -1.30759
431 1.53947 -2.00366 -10.3551
432 -2.1825 -8.45967 -4.3874
433 3.7249 3.07168 4.76069
434 -5.61225 5.06292 -8.53409
435 7.8986 -10.9487 5.49414
436 -0.321602 3.81784 3.04111
437 -3.92583 -2.12776 -4.55879
438 1.93996 3.1778 -7.57832
439 -6.59666 0.111239 -2.86497
440 -4.63222 -4.78252 -3.58979
441 -0.726614 -6.19111 0.89793
442 4.01571 -1.37793 -3.44697
443 -3.18977 -0.310173 2.76382
444 4.29875 -4.49862 -6.28202
445 -0.695619 1.35818 -0.691865
446 4.66138 -7.01511 -5.67845
447 -0.639106 4.36373 1.04979
448 -7.3301 1.13746 2.44398
449 -6.37262 -1.43552 0.130256
450 -0.563181 -3.4681 -1.36957
451 -9.19802 8.33677 5.64523
452 -7.61544 0.402934 1.4646
453 4.32584 -4.84143 -1.15562
454 -0.46521 -4.39014 -14.2214
455 -1.9033 3.74247 7.12111
456 -0.625156 1.97272 2.03382
457 0.723616 2.17247 9.86258
458 2.14246 4.86724 -5.17785
459 -6.73176 -7.47443 -0.154994
460 1.96115 3.44343 -3.5774
461 -7.37915 -3.32248 -3.97043
462 -11.4377 -3.42135 9.64384
463 -4.05203 -5.99644 -4.16546
464 3.48961 -6.8823 3.9973
465 1.80739 -8.09192 0.160006
466 1.52742 -2.58809 4.49008
467 -0.951384 -2.14571 -2.91589
468 5.16235 -1.49702 1.52322
469 2.58964 -0.0197066 2.42174
470 -7.11144 -0.60478 -8.20001
471 -1.78486 2.01101 8.12774
472 3.24109 2.19951 -10.4796
473 6.7393 0.240575 2.40874
474 1.3017 5.11508 5.66094
475 4.12031 6.44719 -3.86813
476 -1.09274 -2.66576 1.61537
477 5.48512 -3.40017 -6.75145
478 3.39101 7.45953 -1.29368
479 -5.90975 3.34885 0.418781
480 -1.06012 1.85577 5.35994
481 -7.1514 -3.57795 -7.01488
482 0.00233958 -4.23323 6.9559
483 0.283394 -8.22861 7.27747
484 -6.28903 7.94458 -7.89523
485 0.596236 -7.85652 -2.92537
486 -0.65746 -0.579503 3.43188
487 -0.72951 -7.21088 -3.58637
488 -2.94263 0.963671 -4.23373
489 5.10974 -10.2106 -3.47847
490 -5.42844 -1.38279 3.19513
491 -1.49818 2.47958 -3.19463
492 4.66528 2.2991 1.76204
493 -0.844662 -2.59306 -3.8557
494 -11.6769 -4.24665 6.82842
495 -3.36711 4.33497 0.861428
496 -1.36825 -3.68662 3.9845
497 -10.1907 -5.24352 0.913514
498 -5.44616 0.714351 -0.379946
499 2.12586 -6.57939 -5.0903
500 1.00724 -2.64487 2.0593
501 3.93662 -1.89766 0.722917
502 1.36616 1.1092 -0.307499
503 1.59756 4.87309 -1.21425
504 -0.840233 -0.243587 5.86451
505 1.15997 -0.756076 8.8974
506 11.3848 -7.30885 0.366478
507 -4.65575 0.851377 -5.64938
508 5.33478 -11.1135 3.83035
509 -6.05449 2.25863 4.74788
510 -2.17857 -7.38676 1.53709
511 4.86595 1.12556 1.87093
512 0.198201 3.56098 -2.65902
513 -3.21008 1.57215 -2.15632
514 3.15467 2.70602 -6.18981
515 -2.44538 2.04294 5.18087
516 -1.57394 -1.77962 5.62362
517 4.59582 0.820952 1.6205
518 0.685826 3.11056 -4.40383
519 -5.2644 0.55299 1.797
520 -0.498052 -4.13263 -0.70552
521 3.58641 -2.76128 -4.51202
522 -2.70033 -15.7712 2.09442
523 2.10135 -1.79842 6.00558
524 -4.8017 6.43937 8.39624
525 3.33958 -2.35228 2.11975
526 -0.39472 -3.56076 -4.75625
527 4.69518 7.01698 1.26415
528 -0.325782 4.49221 -0.718618
529 1.65725 -4.26761 -2.48597
530 -0.418847 -3.59764 2.17831
531 -0.361684 -12.9147 0.770708
532 2.26201 -0.498963 -7.20345
533 2.8951 2.44989 -2.53991
534 -5.64754 1.15197 -8.74895
535 -2.22219 3.9255 9.10472
536 -2.78184 -3.85759 -0.639517
537 5.18329 4.58613 3.04793
538 -6.7225 7.33696 6.62171
539 6.93713 -0.797724 -9.98048
540 7.65503 3.80662 3.32363
541 -2.41972 -2.11258 -4.40777
542 8.30161 -0.64557 2.14592
543 6.18933 -3.32046 8.65131
544 4.17581 -4.31617 -1.12416
545 0.768162 8.40346 -2.65525
546 -5.09156 -1.1554 4.75763
547 1.55767 -5.03531 1.20195
548 -2.8332 2.7292 -6.80898
549 -3.17307 3.72947 7.10177
550 10.1991 -7.96299 9.47827
551 3.32291 0.582085 3.40069
552 1.32368 -7.50025 4.48225
553 -4.73202 -8.79706 4.85161
554 -5.31281 6.85227 0.952713
555 -9.72331 0.336235 -6.73745
556 -4.94315 0.261363 -6.02531
557 -0.749164 4.23357 -1.6733
558 -5.85637 5.95079 4.63814
559 4.04536 -2.58029 -5.34547
560 -1.13107 -2.77401 5.31649
561 -0.950605 3.8384 -2.65021
562 -8.88303 5.68452 -7.61519
563 -7.39921 -4.91445 -4.18061
564 1.13648 4.50225 6.15412
565 -0.750057 3.97797 10.7817
566 -7.86771 9.19711 -1.04298
567 0.640903 7.53217 -5.24141
568 -5.94108 -9.20201 0.255156
569 -0.726834 -2.70048 7.23305
570 -7.78794 -5.62582 -6.56225
571 1.86722 -0.62985 -11.1349
572 -2.6811 -2.01725 8.93352
573 -3.06491 11.7402 0.464693
574 0.735693 -1.18133 0.0850083
575 6.1268 11.5822 -8.70878
576 1.05664 -0.192361 6.49314
577 4.61508 7.56195 3.84992
578 -6.20677 12.7749 -1.83629
579 0.741312 0.516436 -3.80407
580 2.60668 -3.7933 4.29026
581 -1.35931 2.86974 5.42863
582 -3.79494 2.13792 -2.69771
583 -2.58471 -0.0976654 0.249554
584 0.405088 6.52496 1.62219
585 8.76754 -3.09176 4.47774
586 3.94732 2.47981 3.16711
587 -1.68717 4.76677 1.82348
588 6.17515 2.85824 7.54893
589 -5.2134 -1.64095 -6.958
590 -0.845053 5.64144 -10.6603
591 -7.16529 5.84336 -1.98573
592 -3.12645 5.03717 -0.823055
593 -5.6338 -11.7324 -0.987851
594 -1.83456 -5.39696 2.81119
595 -2.31901 -4.58861 -1.08855
596 2.15975 3.72134 1.85826
597 -5.38167 6.43336 -2.5861
598 -2.69378 -0.279836 3.92396
599 10.1124 -0.140974 2.36642
600 -1.46046 -1.26121 0.8843
601 -0.17584 -4.61062 -3.2073
602 -0.355256 -1.13469 -0.279611
603 0.381155 -5.86269 3.01597
604 4.86292 -7.87005 7.98104
605 5.30817 6.44485 -0.470893
606 -7.53197 -3.69948 4.85755
607 -4.10851 12.0933 -4.82194
608 -3.51783 1.3882 0.835127
609 -7.83799 -2.95783 0.860873
610 -2.54056 0.951833 4.60506
611 3.39795 -7.42342 4.53035
612 -5.89414 4.71079 -2.52288
613 -6.32201 7.86571 1.77145
614 -7.4239 0.323973 -0.171582
615 -7.57447 -6.7066 2.50508
616 8.56701 -5.48969 1.5549
617 -4.24757 -4.82662 -3.68723
618 -8.42627 0.672232 0.986615
619 -2.48532 4.10332 3.99724
620 2.63257 3.95847 2.45655
621 -3.02769 -7.07802 0.463157
622 5.6048 3.53705 -1.89917
623 6.10938 2.96351 -2.54106
624 -3.2095 -6.4988 -4.3875
625 6.95317 -6.03151 -9.62033
626 0.802449 11.1852 -9.59523
627 -0.599234 -2.34046 -2.44237
628 -2.86643 -4.16122 -0.882306
629 -1.75026 4.54425 -11.044
630 -2.22608 7.93656 7.00605
631 9.33996 2.10641 -0.584229
632 4.71795 -2.68542 5.058
633 -3.30838 5.66716 0.102553
634 -0.365414 -5.63956 -4.84413
635 -1.2407 3.92279 1.2267
636 3.29601 1.0363 -6.82237
637 -4.40518 3.01496 -7.55293
638 -2.00835 -6.24165 -3.55192
639 5.18652 5.79613 2.64694
640 0.872582 4.15544 4.49653
641 -2.11271 1.93444 -6.04079
642 -8.44884 -0.221363 3.40496
643 -6.3205 -0.511354 -2.6449
644 6.50467 -0.18944 -9.29625
645 -1.89559 -1.39248 11.8456
646 -7.13644 4.15327 -2.53523
647 -3.66033 6.0618 2.3143
648 -6.04061 9.85696 8.85636
649 -5.70365 10.8409 -3.1431
650 -3.14418 -1.86041 5.59596
651 1.55531 -0.257308 -6.93561
652 -7.11187 -0.659036 0.466124
653 2.76296 0.106778 -5.27705
654 -7.71478 0.465881 7.54723
655 -1.90917 3.7549 -2.71201
656 -1.43197 -4.43842 -2.56021
657 2.51904 -4.97721 -1.6987
658 6.70653 -0.131919 7.91174
659 1.02644 -3.83359 1.72492
660 -0.517902 -7.10675 3.82344
661 -3.0697 -2.44155 6.31659
662 -6.69171 -2.84027 -4.97363
663 0.540187 6.94078 -0.101598
664 -0.398097 -5.7604 -5.84571
665 -4.57674 5.30846 1.46756
666 -7.79836 2.56323 -6.31867
667 -3.95849 -0.0527687 1.46701
668 4.54773 8.24187 -7.81173
669 -3.26432 0.206123 -0.82814
670 -3.27721 3.21997 2.79431
671 8.89927 -8.35472 -0.966389
672 -6.91404 -4.81956 -1.74701
673 -3.79157 0.261139 9.1514
674 -0.46524 -0.154374 0.523178
675 7.93319 -3.56012 3.60069
676 -5.93128 5.19555 -0.00509589
677 6.82787 5.33363 -6.5644
678 -3.15223 -3.58524 -0.914589
679 -8.24296 2.78082 -7.90812
680 8.3362 4.80509 -2.02869
681 -1.75584 1.36003 6.98247
682 10.4358 -4.18858 3.7869
683 -0.927831 -2.29589 -0.375041
684 -9.26453 2.79163 5.25417
685 1.60484 -0.986015 2.35035
686 -2.59845 -6.15551 5.36466
687 4.71692 2.34187 -2.679
688 2.83825 1.4667 0.07524
689 -7.28278 0.0373106 -6.57701
690 0.538436 -0.892624 6.88789
691 -2.42142 3.66856 -3.08021
692 -0.781801 -0.914135 0.346102
693 -0.514186 1.75791 4.08875
694 -0.586901 0.356834 -0.736172
695 2.06467 4.24584 -0.645058
696 -10.6875 6.19329 -6.53562
697 -6.65598 11.6433 -1.44322
698 -1.69277 2.20647 0.565349
699 1.09149 2.07824 -1.17193
700 -0.433174 0.404364 0.0543399
701 -5.186 -4.77871 -0.665497
702 2.25033 -1.13681 -3.602
703 8.39788 3.64713 3.71285
704 -6.43986 -6.39011 -8.82096
705 -3.91724 -0.939799 -4.47051
706 -4.20741 -3.26335 -2.14235
707 -7.27705 -6.70469 -6.06898
708 6.43711 -5.29839 5.18914
709 1.76156 4.89078 -3.22109
710 1.38118 -1.51095 -2.48985
711 -0.254204 0.992631 0.994509
712 8.06777 -2.46751 3.91337
713 4.35917 3.51024 0.305374
714 1.93752 6.19114 -2.58805
715 13.3943 9.13747 -8.1551
716 -1.42914 -0.127251 -2.03982
717 3.09232 -7.08815 1.4685
718 3.80196 -4.565 1.25774
719 -4.83064 2.68528 -1.6392
720 0.224211 2.96243 -7.54513
721 5.0261 1.03462 -5.30329
722 -4.27387 0.284665 -0.105744
723 5.37655 1.39592 8.54806
724 2.70646 -1.6865 -1.75751
725 -1.55848 7.24877 -9.89641
726 -4.05515 -2.61572 6.60981
727 0.0522224 -7.71994 4.26375
728 2.01376 0.528623 3.73098
729 -2.97684 -1.15293 -2.02858
730 -6.55368 7.33267 -2.95377
731 3.21035 -0.349569 -0.488574
732 9.87632 -4.60735 6.96698
733 11.3852 1.03367 -1.06971
734 0.61523 1.2385 2.10055
735 -9.56106 8.90843 -1.6384
736 4.66167 1.86314 -1.51533
737 -4.38691 -6.91092 0.328414
738 -3.62051 -3.14341 -3.83227
739 5.3972 -6.10195 -5.7725
740 -1.75144 -4.35907 5.48258
741 -0.74786 -7.63225 11.2681
742 -0.282357 1.27214 -1.62909
743 -4.35897 7.5699 5.18436
744 -3.25758 -0.73019 6.06454
745 -6.81746 -4.66932 0.68349
746 8.87307 9.67763 6.5103
747 -1.09631 0.76746 2.15476
748 8.46501 2.50563 -7.82361
749 -5.80723 -0.871643 -7.34713
750 -5.03285 -3.09298 -1.03322
751 0.0962038 -1.11299 -11.1999
752 1.94826 1.18716 -1.96123
753 -2.44077 2.0425 -4.19273
754 -1.26641 -6.81558 -5.60405
755 3.97701 -4.2732 1.31805
756 -6.01168 9.88928 -0.132607
757 -0.900117 9.34733 5.83199
758 5.44717 9.08562 -6.8645
759 -4.81928 -0.457974 9.14214
760 -0.677816 5.89288 -5.71126
761 -5.77922 0.420451 4.39146
762 -2.80211 8.76395 15.0741
763 2.45379 0.241133 -3.70083
764 -0.699001 3.48527 8.0664
765 -3.20857 -12.4099 -0.486924
766 0.378923 -6.77418 3.6917
767 4.03706 -4.82514 -2.42089
768 -2.9467 -0.860837 2.5042
769 -3.21463 5.47922 4.48937
770 2.361 -3.97906 -5.46679
771 -1.08223 4.86016 1.99173
772 8.46451 0.757958 -9.05105
773 3.53092 -0.422742 1.99833
774 -2.94049 -3.91837 13.5099
775 -0.478194 1.4133 6.34439
776 4.58379 3.12597 -2.53208
777 2.88097 -6.03739 -7.52059
778 11.0766 -9.95069 7.24642
779 -5.89128 3.99644 -7.38458
780 5.5072 -8.82125 0.733981
781 7.22315 -7.80806 -5.95442
782 -4.7579 9.31302 1.37146
783 10.033 4.01867 -9.97288
784 -4.81781 -0.932092 0.0710162
785 8.45975 0.0434236 9.70176
786 2.77991 3.18721 -10.1404
787 -4.71366 6.38729 -5.29589
788 -3.38013 -2.27185 4.94739
789 -3.60403 -1.59174 0.0208412
790 2.91339 -1.71206 -1.85119
791 -0.739049 1.10291 2.53694
792 -4.89834 -3.19219 7.05502
793 0.859048 -7.57132 -5.92996
794 0.747353 -4.40267 0.869816
795 9.5972 3.47741 9.66834
796 3.30182 -2.45037 7.03732
797 -5.65317 1.10373 -5.81559
798 -5.01444 -3.25933 -7.26394
799 2.90788 8.12643 6.37481
800 -10.4346 6.23519 -1.83821
801 -8.62188 4.98831 -5.51548
802 7.93171 -0.309764 5.78442
803 -6.19499 1.29483 -2.23201
804 11.9136 -2.87143 -3.25203
805 3.59622 0.586344 -4.54561
806 -1.40612 4.86181 -1.30377
807 5.32318 -7.77745 10.798
808 -1.9817 -1.94974 -0.153061
809 -0.93701 6.88676 1.89178
810 -2.86932 6.35507 -7.47313
811 -3.96668 -4.22267 7.28018
812 1.056 6.43417 6.03022
813 -1.17434 -3.02867 -4.14095
814 -0.803811 4.82645 6.0088
815 1.60386 6.43631 1.68676
816 0.472555 12.9022 -3.20517
817 -4.53583 -4.04028 1.31956
818 -2.61308 -7.42558 -4.35193
819 -1.22077 5.86559 7.62807
820 2.90962 6.63366 3.33718
821 1.4151 -5.53209 2.992
822 5.41689 3.75456 -2.81936
823 -0.307001 -6.2607 2.39298
824 1.4829 -4.85856 3.96115
825 3.93501 0.856565 -2.59472
826 3.97839 -1.0162 -2.09574
827 -0.00612277 -5.64869 -3.03311
828 4.14431 7.82894 8.00618
829 5.73979 8.30617 -0.366617
830 -0.056648 -1.85083 -7.42678
831 3.86435 0.517423 3.51915
832 -3.43786 -6.34727 4.18951
833 -4.78719 -14.8503 3.21574
834 -1.71958 -5.06702 -1.14823
835 -5.84369 3.90378 3.54509
836 1.22048 -1.72295 -4.25149
837 -3.55316 1.15812 -1.25834
838 7.70586 -4.2951 7.35377
839 5.73813 -7.82611 -8.88672
840 -6.96272 -6.5604 -5.75687
841 3.21183 -2.20132 6.4524
842 -1.20947 -5.51961 -3.26996
843 -1.54282 -1.43265 12.1074
844 0.494713 -3.53488 3.02422
845 -0.962028 5.74588 -4.68067
846 2.45149 7.85398 -6.26463
847 0.0363957 2.86694 -5.99653
848 7.02966 -6.54379 -6.03173
849 1.10481 4.62765 -3.08985
850 -2.37141 -3.55811 -3.60739
851 -1.29013 -1.05516 -6.34753
852 -0.711786 5.45333 -0.893723
853 -0.653503 10.4088 -4.75588
854 -4.44908 1.30162 1.50428
855 -0.920243 -5.26832 4.38286
856 5.35057 -6.34568 -0.711767
857 2.02267 -2.82693 -2.662
858 -6.48242 -0.890699 9.07504
859 -6.20629 -0.354636 -0.231483
860 2.018 -4.08134 4.75793
861 -1.13944 1.82636 0.752959
862 -1.73858 -3.87441 -7.77494
863 -5.54578 -0.354626 -5.26928
864 4.03939 0.44378 3.95773
865 1.9941 0.490255 2.95359
866 1.66917 2.85043 -2.72285
867 0.73928 -4.02364 1.83617
868 4.16672 0.084673 1.86714
869 0.259126 -0.798892 -4.32921
870 -2.22045 1.5055 -5.77827
871 1.24385 6.84749 -4.00433
872 -6.18663 -2.95834 0.469581
873 -9.39174 1.40535 -4.70527
874 6.78167 0.679438 2.06767
875 -1.7764 -1.43367 -6.92004
876 2.68284 1.89743 1.77012
877 0.522157 -0.072964 -4.4801
878 -6.98494 2.47438 4.6445
879 0.944731 -0.51348 -10.1825
880 -0.969546 -4.436 9.136
881 0.883276 -5.55392 -10.587
882 -3.15377 -3.1409 -3.22604
883 3.52802 -3.64163 -2.79163
884 4.75623 2.6845 -0.593274
885 -3.04555 0.43848 0.690782
886 -0.645397 -1.62019 -2.18051
887 -5.93838 1.76468 2.97695
888 -2.2781 -5.87731 -3.7437
889 1.32795 7.97885 -0.430767
890 -3.54678 0.00463691 -9.13664
891 6.94039 2.17062 3.54443
892 -2.08503 -0.214685 -1.89796
893 -3.26727 -1.66228 -5.52306
894 -0.0772392 -1.70521 6.78302
895 5.42151 -5.47556 -1.86523
896 0.953085 7.63984 -2.64765
897 -0.454731 2.57353 1.78226
898 -0.519679 -9.39884 2.9249
899 -0.881178 -0.544595 -6.27926
900 -3.09783 0.0667141 -1.64197
901 -0.394758 -1.50621 1.92681
902 -4.07801 8.70506 -8.30221
903 4.16156 4.07728 3.77337
904 6.13214 -6.88217 10.7785
905 6.02588 5.56035 -0.0985199
906 -2.75221 1.27827 0.414145
907 3.95761 -0.418565 8.30854
908 7.42229 2.02514 2.7005
909 -6.24949 -6.50588 1.563
910 0.422714 -3.30039 8.1092
911 -1.46331 -0.439942 -0.914884
912 5.83522 -7.6815 -7.56455
913 -0.823657 -0.422146 -5.6763
914 -6.01876 -0.714847 0.760816
915 2.78001 -9.65979 -15.1059
916 4.4548 0.765582 -6.30363
917 0.126197 -2.34307 -4.19096
918 8.78388 11.2284 0.790716
919 9.73935 -1.064 9.00603
920 -0.158814 14.218 8.26019
921 6.68199 3.32697 -2.63454
922 -8.46227 13.0156 3.88579
923 7.71678 0.49705 11.4624
924 -4.72232 -1.06922 -6.62855
925 4.40106 0.31225 -1.7693
926 -4.44486 -0.12054 -0.133535
927 4.25859 -1.78941 6.18459
928 2.28836 4.39144 2.36442
929 -1.25298 3.86915 0.321586
930 -3.34983 1.27445 -8.27373
931 -0.130964 -0.794146 -2.45416
932 1.6898 -8.4397 -4.89596
933 -3.82969 -5.9601 7.87491
934 0.0589977 9.607 0.823672
935 4.6609 -5.01061 6.69638
936 2.40454 6.09413 -6.56327
937 -0.377792 2.97925 -1.91293
938 -3.34982 -1.63057 -5.33711
939 10.5673 2.71414 3.48716
940 -11.0266 -6.07937 -4.31692
941 5.05566 0.673293 2.90656
942 -10.2224 -3.86975 -4.15338
943 5.04336 6.09452 -2.45222
944 3.4242 7.55268 0.42226
945 2.06662 -0.0799346 2.86992
946 7.47021 -0.367275 1.16806
947 3.71029 -3.54743 -0.371077
948 -8.58584 -5.57249 3.54183
949 6.12258 2.41169 0.701839
950 8.98686 0.0757171 1.75488
951 7.11754 4.39306 0.634804
952 -12.8607 -7.65654 -0.495995
953 -2.2802 -4.05148 1.1736
954 -4.50081 5.12632 1.25819
955 1.93619 -10.5309 3.6489
956 -7.33349 0.337518 3.04879
957 17.4032 -3.50088 0.00399814
958 2.92503 4.3855 6.01886
959 -7.19588 6.26879 -13.4511
960 -3.65923 5.97815 -4.74204
961 0.930526 5.33975 -3.72561
962 2.679 -7.81457 1.00442
963 -2.57581 -8.21184 2.04661
964 8.04242 1.62383 1.76555
965 2.99421 -7.35649 -9.80946
966 3.76895 6.77772 -0.139363
967 5.96397 -7.15071 -8.01083
968 6.67731 -2.45266 -0.683965
969 5.48127 5.64519 -2.71999
970 4.56335 -2.74433 6.66833
971 5.49178 -10.64 3.71578
972 5.06628 -5.48595 3.60959
973 -2.31611 -2.04612 2.49
974 2.66817 -0.403215 2.27529
975 -2.45614 -15.8764 0.53399
976 -1.1764 -7.35479 -0.966648
977 -2.91387 4.43909 1.43489
978 0.330582 5.04395 -1.59286
979 0.974309 -4.73092 1.13295
980 0.736044 -11.7169 -4.28218
981 8.79322 -0.728257 -2.78588
982 9.99112 -9.77629 -5.74093
983 -4.10315 4.1545 -0.321517
984 2.25012 7.65976 7.71246
985 0.508783 -2.93929 3.61676
986 -6.0495 -7.53572 0.487509
987 -3.30906 -1.23005 0.412105
988 4.69527 -6.35968 4.76437
989 -5.32763 1.46842 0.908646
990 -3.87381 9.04904 -7.57036
991 -5.8401 -6.23645 -12.7082
992 8.07272 -10.0896 2.57686
993 -0.828265 -10.3615 3.71455
994 2.43066 -2.78177 3.52498
995 8.01907 12.9141 6.30808
996 -6.46248 2.8248 -8.1303
997 4.43852 4.98309 1.15749
998 2.8799 -2.48557 10.4849
999 5.79921 -1.60744 3.14516
1000 -6.3403 -2.00895 -1.998
1001 0.141997 -1.04042 -2.96181
1002 4.22776 8.78395 -3.8115
1003 4.0322 -1.84124 2.14724
1004 -6.08477 -4.71578 4.19737
1005 -6.10104 -7.55145 -0.217144
1006 0.861166 3.89824 0.605741
1007 2.01 -0.854664 0.224016
1008 4.55951 0.843141 -4.67809
1009 -0.701332 -1.90037 -3.44819
1010 -0.762342 -7.66706 2.07973
1011 -1.50197 -6.81691 -1.78451
1012 6.88844 -5.83301 0.533318
1013 -0.210145 -9.75187 -2.34003
1014 6.62409 5.36027 0.260773
1015 2.24171 -4.13369 -0.714584
1016 -2.78364 11.3292 0.98198
1017 -2.1232 -0.136983 -4.16353
1018 0.409406 0.384869 -1.93104
1019 -0.106302 -3.5625 1.2114
1020 1.33825 4.69541 -4.38057
1021 -6.51703 -1.06058 -1.33418
1022 -10.9943 -0.886766 -2.57949
1023 -2.28225 3.52496 5.39185
1024 7.38165 -2.43187 0.827368
1025 -3.74359 4.01463 8.23874
1026 1.65117 2.18472 7.19679
1027 -1.5175 3.59612 -3.00933
1028 -1.09143 2.75816 1.96301
1029 4.47142 -1.70135 5.15549
1030 -4.67562 1.95663 -4.83463
1031 0.514106 -0.880743 4.45134
1032 -4.40805 -0.903137 3.83646
1033 -3.59378 -7.37994 -5.69905
1034 -7.3905 0.196978 8.13422
1035 -11.6067 7.69702 -4.84298
1036 -0.736126 -8.16255 -2.78884
1037 2.86855 -1.75188 -4.28838
1038 1.73897 -14.3411 1.12474
1039 1.83342 13.0062 9.58436
1040 8.03857 -3.16331 -6.36402
1041 5.20944 -0.00223208 -3.00911
1042 -3.45699 -1.44986 7.65091
1043 -4.38968 0.755254 -3.18186
1044 -3.40047 -1.6999 -2.73481
1045 3.79617 6.59523 8.0728
1046 -7.04009 4.05431 9.95498
1047 -7.1724 -0.0862731 6.23445
1048 -0.416809 -6.31221 -4.36584
1049 -4.11031 -6.45065 -2.80042
1050 -12.5174 -2.44443 -2.57839
1051 1.1155 -2.71368 -3.98721
1052 -1.17453 -4.0135 -2.11679
1053 -5.87239 1.96389 3.62829
1054 2.2354 -3.34816 -2.2332
1055 6.54558 -0.403335 0.0420069
1056 -3.49185 -3.94086 1.10294
1057 -2.11876 8.1203 -9.83313
1058 -2.03443 -2.01927 2.89496
1059 -1.44844 -1.37946 0.225703
1060 4.74277 5.35971 -3.60902
1061 8.02872 -6.10584 0.107669
1062 2.21015 0.734232 -2.43757
1063 7.16597 -0.414636 3.05916
1064 -4.4616 -5.22068 3.61199
1065 -0.190739 2.5482 -6.5458
1066 7.31559 6.55028 -6.7484
1067 8.52401 0.602205 3.35982
1068 1.73548 2.77199 -5.47989
1069 2.20681 -1.47799 0.356604
1070 -5.80424 0.923527 6.01552
1071 2.0465 -6.34077 -2.33437
1072 4.6898 -3.91515 0.508088
1073 -4.90352 -0.462649 -4.98886
1074 0.425934 5.31082 -5.57585
1075 -5.12182 -3.07797 1.25984
1076 -0.14709 1.60436 0.504472
1077 -5.9191 0.225667 11.206
1078 -10.6112 -6.01932 10.3935
1079 -9.07576 6.12455 -0.886067
1080 2.97821 -8.31196 3.57369
1081 -0.835031 6.07147 0.721514
1082 -3.32658 4.99527 -0.441924
1083 2.55852 1.68316 3.5665
1084 1.45336 3.97651 0.539472
1085 3.97718 5.76506 -0.187871
1086 -1.27978 9.70504 3.59989
1087 9.91764 -4.89437 -12.2772
1088 -7.24161 5.78977 -5.42934
1089 1.97308 2.23662 1.10354
1090 -7.34148 3.17859 -1.45125
1091 -5.9676 -9.32069 -1.99845
1092 -3.9326 -2.07952 -6.17581
1093 -4.12519 -0.190886 -0.363748
1094 2.85737 3.04048 6.13792
1095 -8.36929 4.37878 -3.45319
1096 -0.0679906 3.6397 5.34053
1097 2.52893 -1.764 -0.328206
1098 -1.0421 -0.325223 7.72984
1099 1.98859 4.01609 6.99729
1100 4.42001 -8.35684 9.21883
1101 -4.42827 -0.729235 -1.28784
1102 -0.0304134 -4.38697 -7.18202
1103 5.72638 1.57957 -1.44209
1104 0.423416 0.246049 3.10392
1105 0.127639 -3.10131 1.24808
1106 -0.985795 0.776802 1.89401
1107 -3.72576 -10.1794 9.42973
1108 -0.0505857 1.26856 -1.25104
1109 -10.5453 1.00009 8.80811
1110 10.6411 -6.87525 0.670066
1111 6.02091 -0.756064 -2.4031
1112 -1.77665 10.0609 -1.64585
1113 -4.3953 8.46853 -1.70409
1114 10.4978 -1.01166 6.71109
1115 -2.35018 -3.25285 2.69594
1116 -3.22598 3.12447 4.57674
1117 -0.778089 -3.45795 7.38821
1118 0.711835 -2.05938 1.69907
1119 -6.41479 0.848514 1.49672
1120 0.548017 5.09229 -9.64392
1121 3.50789 -0.318515 12.3169
1122 -0.600117 -5.76003 -5.85508
1123 -7.22017 0.292882 -1.09471
1124 -2.36808 -4.65893 -7.06253
1125 0.458741 0.738022 4.3785
1126 1.16024 6.89455 -0.321986
1127 -10.5009 8.80449 -8.5259
1128 -5.13064 4.39355 0.0927057
1129 -2.89901 -5.63597 -4.65028
1130 0.943867 4.36286 0.306404
1131 7.81108 4.68626 10.8452
1132 1.61481 -0.741827 -4.40182
1133 -3.02627 1.77523 3.51853
1134 7.03904 4.06084 -0.194228
1135 -2.98261 -2.70486 5.85878
1136 -5.84108 4.78428 4.33261
1137 -1.62328 -2.39515 5.2462
1138 -0.0984264 6.84465 -2.97359
1139 -3.49797 -1.12563 -5.4553
1140 0.370164 -2.09583 0.75907
1141 11.4924 -7.42101 -4.44145
1142 3.92491 2.66988 -0.465887
1143 8.29098 -0.396087 1.00952
1144 -10.7434 -4.21234 -1.64586
1145 6.00043 2.31596 -3.58661
1146 -8.60724 -0.938647 -4.85965
1147 8.23494 7.2758 -0.199241
1148 -1.08845 1.56352 -7.29687
1149 3.08218 6.88978 2.45585
1150 -1.92213 -3.61048 3.81074
1151 0.143631 5.05436 -3.08875
1152 2.28938 -5.80959 0.317222
1153 -2.15764 2.7458 -5.59098
1154 -3.6384 3.08647 -1.83226
1155 -4.31951 -0.988698 -9.89684
1156 1.46162 -0.846003 6.06347
1157 -8.35385 0.9549 -4.05681
1158 -1.09175 -6.94084 1.95652
1159 -3.33603 2.18438 6.32246
1160 -3.06887 10.3521 5.08704
1161 -4.41858 6.45674 -0.903768
1162 -6.1897 -0.589497 -7.39869
1163 5.10381 -3.71089 -3.41109
1164 6.86193 -3.22522 -3.61786
1165 -2.81511 -5.40054 -0.864609
1166 0.0983548 -1.96271 -2.80806
1167 -3.21356 2.60371 1.51492
1168 5.22308 2.32096 10.8415
1169 -0.0936263 -6.23023 -0.159447
1170 4.4253 8.10122 2.55071
1171 6.77228 0.0638629 -10.8405
1172 0.993974 1.86247 1.91502
1173 7.44076 -4.06369 1.08545
1174 1.84028 2.16553 -5.60072
1175 -0.171986 6.58215 3.02611
1176 -4.68533 3.75015 -1.15558
1177 5.89697 -5.78403 -6.3252
1178 2.94746 -3.10698 16.1893
1179 5.77072 2.83352 2.65568
1180 8.25893 -2.08804 2.7689
1181 1.88781 2.75584 -6.80177
1182 -4.05254 -4.19475 -0.954466
1183 -2.65488 3.55031 -3.19685
1184 -2.96729 -3.19981 7.18478
1185 3.38442 7.93443 -7.65033
1186 -2.92415 3.23499 -3.38268
1187 12.3716 -3.46496 10.8161
1188 -1.55716 6.97487 3.68212
1189 1.20443 -1.85465 -5.4148
1190 -2.99243 2.73679 -4.40137
1191 2.25732 7.12802 8.97964
1192 1.64062 -0.530494 0.69941
1193 5.70141 -8.6683 -8.11204
1194 0.239771 -0.990833 -8.64164
1195 2.88174 3.5402 0.849799
1196 -1.8978 -11.9569 0.784904
1197 1.9992 3.67117 -1.18631
1198 -8.38773 4.86903 1.83257
1199 -7.39275 4.36939 1.85957
1200 1.01098 -3.31037 5.60982
1201 0.386424 1.64818 17.2301
1202 -1.91474 -0.112315 2.69349
1203 -3.63806 -3.63264 1.06559
1204 -2.27131 -5.70418 0.659899
1205 0.931356 9.56075 4.28029
1206 -1.30875 -2.50007 1.72665
1207 10.7697 3.78535 -3.11586
1208 -0.448561 -0.903436 3.44459
1209 -2.19427 -6.30678 5.65763
1210 0.475648 -8.65917 4.24523
1211 5.88095 -4.0829 10.5677
1212 1.22601 0.9268 3.40786
1213 -1.98615 2.57777 -1.2217
1214 -6.54598 -5.48051 5.43671
1215 -3.71923 2.8632 -4.13338
1216 4.78692 1.52645 -5.0272
1217 1.98291 5.10729 9.21361
1218 0.374071 -6.90691 4.86278
1219 -5.27132 1.3461 -4.0455
1220 -4.89394 -9.70083 -0.232431
1221 1.73163 -3.66272 18.5868
1222 4.92435 -8.13394 3.05474
1223 -5.59681 2.71361 0.533315
1224 2.06748 -3.2654 -6.60413
1225 -8.06933 3.97592 -0.00810282
1226 1.35982 7.18043 2.23588
1227 7.04125 2.66519 1.50768
1228 -0.416935 4.05679 -4.35286
1229 -8.12331 -0.600443 -0.668849
1230 6.4636 -1.67039 -9.39364
1231 -8.09097 4.99786 1.46616
1232 -1.71324 -2.16773 -7.29323
1233 4.30155 -3.79535 -2.15998
1234 -7.93836 -3.25218 7.74145
1235 6.92565 3.95693 4.88225
1236 -3.57678 -0.611576 0.238455
1237 -5.1965 1.51298 -0.571334
1238 -0.278665 -0.0568123 3.90312
1239 6.14345 -2.84028 4.23015
1240 -6.17849 5.61228 -3.40568
1241 -2.39851 -0.613211 -1.06849
1242 6.06315 2.51504 -9.89308
1243 -1.97118 -1.55844 8.32769
1244 -0.742633 -8.86566 0.920426
1245 8.75579 -0.36845 2.36372
1246 -3.26863 9.64192 2.74793
1247 -4.33685 6.20368 0.49062
1248 -0.419359 -6.09865 7.53263
1249 -2.8335 -5.69179 15.5744
1250 -4.48065 1.53195 -4.38357
1251 -2.92771 7.25456 -1.11913
1252 -4.27404 11.7562 -3.06366
1253 -7.93322 -8.08551 1.50986
1254 6.178 -7.18238 -2.36637
1255 8.43639 1.75174 2.63502
1256 -1.48491 9.79494 -2.34164
1257 7.8105 4.45113 1.02867
1258 5.10171 3.20876 -0.497725
1259 -1.86186 -3.28062 8.34828
1260 -1.15353 -8.49065 6.32207
1261 7.11249 3.96824 11.2044
1262 -4.63134 3.21383 -0.0549207
1263 0.961642 -6.76621 7.87173
1264 3.94166 0.923649 9.78815
1265 3.08642 -6.02606 -4.17971
1266 -1.30603 3.52669 2.67753
1267 -3.53082 3.18986 -6.55885
1268 16.8624 -5.62906 4.2609
1269 -4.46903 -3.10192 5.63497
1270 -0.638193 1.23096 -2.12481
1271 -4.65074 1.93506 1.6721
1272 -2.40876 -1.64035 4.05557
1273 1.55756 9.00244 0.313031
1274 4.55494 1.50116 -4.0492
1275 -3.92283 0.871281 3.52512
1276 3.51045 -0.723433 4.94313
1277 2.45182 4.43551 1.91873
1278 4.26943 0.570258 -3.30648
1279 -2.46157 -1.27116 -0.860801
1280 -6.45981 -0.70298 4.7735
1281 7.16892 4.05899 1.0598
1282 0.609173 -7.57068 8.12466
1283 -2.47152 8.89493 -5.8206
1284 2.39023 -4.45705 1.56496
1285 4.6711 -5.79602 4.85632
1286 -6.71748 -1.91679 9.85175
1287 2.38741 -4.19047 -6.31018
1288 -1.4747 3.84429 2.65412
1289 -3.47995 -5.70959 4.22492
1290 -4.87485 -10.4024 -9.02391
1291 5.60459 -4.60666 2.64158
1292 1.07511 1.81016 -2.7193
1293 -3.43513 -4.32459 -0.0328292
1294 -0.373136 -1.50834 6.94433
1295 -6.18744 -7.44508 4.8208
1296 5.24722 6.35561 -5.50975
1297 -3.03829 -4.67077 -8.62274
1298 -9.68229 -3.81433 3.79456
1299 -2.36918 -6.73302 0.251968
1300 -2.80172 1.59212 -0.899278
1301 -0.384024 0.698565 -2.36176
1302 -2.61297 -7.84699 3.95281
1303 1.55213 -9.18023 2.21883
1304 -1.11212 -4.06881 7.79378
1305 8.31405 -2.20375 -0.0898371
1306 -6.49956 4.21348 5.20543
1307 0.0165477 -3.29986 -4.4105
1308 10.8956 9.92806 9.56343
1309 -1.03852 -3.54312 6.24174
1310 -3.77265 1.64159 -2.31423
1311 -3.28056 -2.03089 0.530413
1312 -3.21737 -5.9726 2.16904
1313 4.49869 -2.81682 3.78247
1314 -0.779743 10.1108 -6.03724
1315 -11.1892 10.5274 -5.69652
1316 -13.8377 -9.53285 -1.67745
1317 -6.7097 -3.94849 -4.09716
1318 -7.61131 6.6461 -5.17419
1319 -8.62799 -4.59382 -6.28277
1320 -1.20595 6.39479 -1.05444
1321 0.126536 5.1728 -0.696608
1322 0.0753733 -3.98392 1.43905
1323 -2.50812 -1.32988 0.597289
1324 -7.74874 3.72987 0.660486
1325 -5.29066 -3.81311 1.29486
1326 -1.32605 -0.204586 -3.56322
1327 9.13417 1.0017 0.698594
1328 -1.67534 -6.8472 6.66354
1329 -0.701337 4.14875 -4.14786
1330 3.75737 5.72193 -2.94145
1331 1.40283 -0.101111 3.87511
1332 4.15735 -9.81338 -5.20936
1333 12.8124 -5.28225 0.0302094
1334 -9.90533 0.442983 1.61965
1335 -6.50116 -2.90877 7.20829
1336 2.56736 2.9526 2.99756
1337 1.90532 -1.18981 3.6749
1338 0.491638 3.8602 -1.58334
1339 7.19585 -7.03321 4.99619
1340 5.71868 5.57492 0.187449
1341 -4.53787 8.04119 0.108208
1342 -1.63207 -0.514062 5.14229
1343 2.8665 4.17761 -3.06418
1344 -9.65267 -5.66085 5.0697
1345 -0.364932 5.1829 -11.7761
1346 -5.24478 0.965643 7.10754
1347 -0.817373 7.44494 2.69149
1348 2.65437 -8.7856 -6.51398
1349 5.27937 1.19395 5.61703
1350 -0.551078 8.71752 1.65628
1351 5.29287 -0.851486 -2.54906
1352 -10.4018 -6.99331 -4.06692
1353 -3.5901 -2.64878 6.88068
1354 1.78585 2.61627 -1.87805
1355 -1.07122 -4.3997 -8.84404
1356 5.61703 -1.68998 3.07326
1357 -1.76561 -1.25027 0.234014
1358 2.8595 1.93495 -3.21881
1359 -0.00804857 -3.37414 1.47442
1360 -3.81962 4.18629 1.46962
1361 1.01793 6.18438 -5.72596
1362 5.13934 4.08961 9.47679
1363 -0.833882 -4.2749 7.70296
1364 -6.70885 -4.68769 4.34126
1365 -1.38027 -4.72497 2.57703
1366 -4.63535 -2.45576 -3.33612
1367 2.79451 -10.0567 -6.18717
1368 -6.70964 0.536398 -0.978933
1369 8.27599 0.746422 -3.67578
1370 3.3603 6.63093 -3.40839
1371 -3.36573 -4.39346 -3.98304
1372 5.97485 2.92869 -0.720941
1373 8.9531 -8.05039 -11.2982
1374 10.143 -1.56481 -8.7465
1375 6.42698 1.81445 3.49415
1376 -0.035721 -2.08405 -10.1417
1377 -5.88311 -9.27476 0.778752
1378 4.10687 4.00199 -3.13725
1379 2.36822 -1.5524 -3.07126
1380 6.53141 -1.34893 6.06726
1381 7.94345 3.92934 -4.54843
1382 4.57601 3.01135 11.5516
1383 1.30158 2.60043 -8.85429
1384 -8.03655 2.88511 6.43697
1385 0.525044 -0.043848 1.86938
1386 9.03705 -8.06961 4.97271
1387 -4.42114 0.26082 3.17507
1388 1.56316 12.8556 -1.20151
1389 13.7738 1.18052 2.94665
1390 -3.78976 12.2804 -5.41258
1391 -4.03211 5.40983 0.824449
1392 0.170176 -6.17854 -0.871541
1393 5.19133 9.8171 -1.16719
1394 -2.90534 8.47141 -0.617518
1395 4.8937 -6.74945 -1.70275
1396 0.48817 -0.355243 2.23409
1397 4.40616 0.157275 4.45752
1398 5.42935 -0.0285984 3.58472
1399 -2.61171 -2.68727 2.51719
1400 7.11591 1.09594 -0.971218
1401 0.347839 1.48265 -12.1125
1402 -0.144103 4.37596 -3.41788
1403 2.34466 4.84182 5.99778
1404 1.04921 2.9118 -2.45751
1405 4.58205 -9.00476 2.27026
1406 9.11673 1.03788 -1.24379
1407 6.22027 0.178017 -7.1471
1408 -2.28694 2.73527 -1.39667
1409 0.918032 -3.678 1.70177
1410 -2.35167 -5.22539 -6.77453
1411 9.74068 2.3559 8.25947
1412 8.82382 2.77296 -1.71094
1413 2.41469 -3.42297 8.89785
1414 7.69684 -3.76365 -5.30814
1415 -2.86726 4.35291 -3.97828
1416 5.42629 2.33221 0.534432
1417 5.43315 3.07939 2.10955
1418 -1.33271 9.94522 -2.5391
1419 -3.51646 -2.47502 5.33586
1420 5.63002 0.381811 -5.29501
1421 -6.86758 2.9985 1.60441
1422 3.30945 -2.69484 1.74436
1423 -8.70457 -1.75602 -5.44309
1424 9.93311 2.192 -0.778076
1425 -6.89286 8.85735 2.19673
1426 -7.77635 1.86042 -0.202319
1427 0.929567 0.320065 2.65653
1428 -8.31796 -6.8771 3.49993
1429 1.15463 -1.1924 2.42151
1430 -1.91299 1.98425 -3.16576
1431 -2.17143 4.74352 -5.15423
1432 -1.65812 4.51469 -3.3703
1433 3.11893 -8.18229 -3.01879
1434 8.07182 -1.97519 -0.999558
1435 -2.17413 -1.47421 3.29335
1436 1.75849 -0.0821216 2.33294
1437 -3.86325 -1.08188 5.50783
1438 -4.54202 2.75775 -4.12826
1439 -8.78924 3.33481 1.19686
1440 -0.335524 -6.28742 -2.1483
1441 -4.38106 -6.13145 -10.0954
1442 -0.269366 -3.84879 -6.4775
1443 0.630738 -4.8889 -3.64225
1444 6.85553 2.92203 -0.89668
1445 -2.26978 5.65483 -4.16994
1446 -4.95458 -6.83355 1.80196
1447 -4.59188 -2.39326 -0.49872
1448 -6.09713 5.14584 -4.30533
1449 7.94573 6.59807 -3.52237
1450 5.46322 -6.22113 11.5659
1451 2.92672 12.5111 -4.71911
1452 3.37727 -10.6565 1.48832
1453 -0.0219383 -6.91593 -4.27823
1454 3.84117 6.16777 7.40821
1455 -2.78558 -0.929797 -12.6226
1456 4.78417 7.42087 2.42122
1457 2.31026 13.7147 -6.76185
1458 5.7422 -1.2034 -6.31999
1459 11.2671 6.53112 1.56956
1460 2.56683 -4.31277 1.59624
1461 -2.19827 -0.282138 4.0378
1462 3.52296 -1.01757 0.0723037
1463 -3.88039 -0.210148 -3.4411
1464 -3.97616 1.70578 -1.38007
1465 2.49701 10.9466 -3.98356
1466 -3.30242 -10.9871 9.32998
1467 1.84047 5.88387 -10.7428
1468 3.41001 -9.75668 -6.98574
1469 -0.561441 2.6548 -7.40505
1470 -0.122032 2.01682 2.32878
1471 4.82308 -1.63675 -5.61471
1472 0.139202 -3.22486 -1.66128
1473 -6.57636 -6.04105 3.28887
1474 3.71674 6.27172 5.08271
1475 -3.52968 10.5495 3.00755
1476 -0.919406 -3.49878 4.4868
1477 -2.46161 -2.85217 1.38359
1478 -2.98261 4.92946 7.43757
1479 2.15848 -5.91964 -1.15206
1480 -7.68649 -4.19841 2.78604
1481 9.99773 -5.07055 -4.26295
1482 -5.57415 2.0403 2.88985
1483 5.29529 -3.37794 -0.451538
1484 -2.10482 4.49693 -0.749569
1485 -8.10976 -5.29704 -0.0200783
1486 -8.22135 6.63868 0.028048
1487 -0.432694 2.35481 0.0394061
1488 -4.68975 1.0954 -7.25506
1489 6.70428 3.31124 -6.58445
1490 2.50295 7.4545 1.58746
1491 0.626319 -2.17755 5.70027
1492 -4.29541 0.238517 -9.41327
1493 -2.41652 -5.53062 0.265997
1494 -1.4797 -4.04726 -2.22384
1495 -1.9579 -4.02464 -0.776546
1496 -2.88941 0.392631 -4.29361
1497 -7.51251 -0.035891 -9.2557
1498 -10.251 -5.68679 -2.16296
1499 -6.98345 0.912834 7.57247
1500 1.83349 3.11336 -1.13538
1501 3.78986 -5.71331 -4.37526
1502 -13.0094 -5.58759 -0.389236
1503 4.76763 -0.0499673 11.81
1504 1.26797 -4.53711 -7.05374
1505 4.43362 2.21762 -4.3725
1506 5.00058 -0.814754 -7.6751
1507 4.07697 7.57095 3.98713
1508 -0.300631 -1.50221 -9.58265
1509 1.35052 -5.65811 -5.18016
1510 -2.33599 -6.79531 0.886248
1511 -3.60645 1.30918 4.37685
1512 -6.43629 -1.22079 3.9984
1513 -3.19937 7.4619 -3.59216
1514 -4.36598 -4.04093 3.35875
1515 10.3521 -4.4617 -11.5822
1516 -7.59502 -4.71262 0.0814626
1517 3.47878 0.109126 -5.17269
1518 8.30868 8.26243 -4.44665
1519 0.325926 -0.358144 -2.78022
1520 1.90311 5.87211 -1.72264
1521 1.74512 -0.299731 -5.08051
1522 -0.120966 -1.7014 3.43541
1523 2.47989 -1.98456 4.04452
1524 -2.70808 0.994595 3.37363
1525 3.37577 -6.14396 -4.76325
1526 -11.7796 2.62894 4.91137
1527 2.50554 5.58558 -3.79545
1528 8.40013 -8.78064 5.2596
1529 -3.58937 -0.614812 -3.77293
1530 4.19308 -6.63243 -0.228825
1531 2.7455 -7.02325 -10.1013
1532 6.48375 1.38924 -1.12371
1533 7.69358 4.31325 -3.19299
1534 0.544931 4.48836 -4.20377
1535 -0.948676 -7.52815 -3.1392
1536 2.78198 0.199632 -0.412924
1537 1.66993 -2.34684 -3.30616
1538 6.06713 -2.23678 7.3319
1539 2.26827 -3.95354 -2.38381
1540 -15.6835 2.73265 -11.6191
1541 4.42043 3.51783 -1.02671
1542 -7.38724 5.0403 5.3062
1543 -11.6363 -0.288333 -1.86757
1544 -3.01983 -1.81912 -7.44142
1545 5.81962 1.86173 0.580795
1546 -4.56356 6.1455 0.806895
1547 0.118509 1.50883 -1.01667
1548 1.2888 1.32908 -7.72484
1549 5.07559 -0.999381 10.7941
1550 0.37867 -1.90527 5.09681
1551 1.27042 6.38962 -5.49464
1552 -1.86071 3.73714 13.1958
1553 -7.42306 -0.304192 -2.63277
1554 3.41784 5.12376 -5.25287
1555 1.71964 -2.37601 -1.96644
1556 3.90463 -5.23194 -4.68034
1557 -0.834265 1.72042 -2.93077
1558 0.805074 -7.58229 -2.33487
1559 8.93685 4.08478 3.05443
1560 0.595076 3.00191 -3.99946
1561 6.53258 -1.82569 -6.96949
1562 0.790007 9.65784 -5.15455
1563 -2.42046 0.562481 -9.01721
1564 1.66515 -4.08809 4.85405
1565 -4.29575 -2.40989 -0.391962
1566 0.207695 5.01984 4.84529
1567 -5.63472 -1.46361 -3.27874
1568 0.0507027 5.53017 0.733388
1569 -6.57057 -0.0324345 2.60851
1570 1.64703 2.01108 -1.8355
1571 1.17453 0.32443 3.52219
1572 8.44209 3.45963 -13.604
1573 -3.94959 1.13286 5.65308
1574 8.17752 3.68769 -0.214346
1575 7.25343 -1.70781 -3.9243
1576 -6.45758 3.69131 -1.02496
1577 -3.4564 4.79966 -3.64686
1578 0.740098 7.36211 -8.03066
1579 -1.08057 -6.74044 8.18822
1580 5.51072 0.339153 -1.02352
1581 0.401371 1.55339 2.06884
1582 1.13333 3.5148 2.86287
1583 3.56945 -2.03953 2.73471
1584 -2.41256 -0.788789 -2.349
1585 -8.37718 3.11634 -5.59502
1586 1.65649 3.10599 -1.10303
1587 -1.97366e-04 6.5141 -5.63835
1588 5.28511 2.78042 3.73195
1589 -8.52099 -0.317257 -5.28275
1590 -3.87388 7.45394 7.80327
1591 -11.2218 -4.03785 -1.83195
1592 -0.957772 -0.561294 -6.78561
1593 3.27989 -1.53088 1.60165
1594 -5.46371 -7.06093 -5.12389
1595 5.35398 2.30149 -2.89381
1596 -8.27805 -1.83406 -5.55265
1597 5.30458 1.36765 2.91362
1598 2.10708 1.68197 11.9726
1599 -6.82371 -5.37125 -1.90962
1600 -6.19193 4.16525 11.4888
1601 5.97412 -0.848614 -2.8864
1602 -3.46681 6.38779 9.27739
1603 5.1598 2.0108 -3.84001
1604 9.83444 -2.83723 4.328
1605 -4.89753 4.98527 0.745264
1606 3.72057 3.01776 0.148654
1607 0.420032 0.904348 0.533825
1608 6.41084 0.912008 -4.71571
1609 -1.41106 1.1542 -4.15343
1610 -2.23214 -0.38911 -9.68856
1611 8.43874 -8.46294 -5.98484
1612 -0.921413 5.96812 -3.46605
1613 -1.03462 -3.29986 8.79719
1614 -2.58345 3.04023 -2.22907
1615 1.10064 -4.60315 -1.85488
1616 -0.189971 -0.611052 0.197813
1617 2.403 -2.13806 3.15007
1618 -3.45419 2.2436 -3.11531
1619 -2.59077 4.88885 -2.36001
1620 -1.72187 -5.94182 2.87302
1621 2.40478 5.27067 -12.7323
1622 -8.19424 -5.78916 0.811913
1623 -4.26673 -6.47511 -4.80946
1624 -6.39252 6.41762 1.99745
1625 -3.07639 1.47996 -0.489378
1626 -5.64965 2.66602 2.93199
1627 -2.35076 -5.13041 1.43243
1628 -4.98172 -2.79628 7.97119
1629 9.13841 1.26737 2.81234
1630 4.04127 6.6475 4.85012
1631 -3.87129 -4.0351 -4.45508
1632 0.539994 -0.182807 -2.25707
1633 -3.1979 -8.09471 3.19358
1634 3.76608 2.37896 8.3286
1635 -5.26002 0.91266 -9.67013
1636 5.48925 -8.95683 -12.5164
1637 1.10493 -0.884677 10.0323
1638 6.39705 -6.57171 -7.95345
1639 0.358035 -8.407 -3.17383
1640 -1.27314 11.0713 7.09181
1641 0.543324 -0.12354 2.70382
1642 -0.927366 2.48098 1.52542
1643 9.55897 5.49772 -8.19308
1644 -2.57417 3.52989 2.80463
1645 -5.28792 11.7077 -5.90886
1646 4.21857 2.55332 1.55534
1647 8.48596 2.03509 -0.679021
1648 -2.03275 0.68176 -6.4562
1649 2.30603 -4.53906 3.89501
1650 2.59687 1.52205 5.10176
1651 8.03718 6.47198 -1.29906
1652 -3.72325 4.59784 5.931
1653 -2.66059 -3.98287 -3.54786
1654 -8.527 3.2679 -7.14273
1655 10.2047 -0.412489 -10.4385
1656 8.72161 -0.955713 -3.39683
1657 -2.87879 2.44593 -4.76307
1658 -1.87618 -1.83001 1.76068
1659 -0.417646 6.50147 4.05882
1660 -4.41068 -12.7229 -0.567187
1661 -3.35345 2.81773 -2.65702
1662 1.33376 -5.22908 1.09008
1663 7.92121 4.7958 -1.13688
1664 -5.46182 3.75915 -2.79868
1665 -1.77807 5.90599 8.52936
1666 -0.744632 -1.91368 3.28385
1667 -2.30933 1.65943 10.0276
1668 1.80968 1.09941 -0.914317
1669 11.1989 -7.7673 0.135581
1670 -1.11107 2.91826 -3.84773
1671 -2.4194 -3.93936 -4.6075
1672 -3.60612 0.940627 -4.40147
1673 5.38225 -7.22369 4.82643
1674 -9.05666 1.51844 6.5578
1675 -7.38928 2.49903 -0.320217
1676 10.4341 -0.58294 -10.9727
1677 -0.0454748 -6.74523 -0.997139
1678 -0.172417 -1.11455 3.73993
1679 -5.44656 -2.21627 1.79383
1680 11.9191 -6.18611 0.55768
1681 0.120966 -2.16821 -1.78043
1682 1.446 -1.07003 11.9682
1683 0.669759 5.96187 9.06507
1684 -10.0432 6.11905 -0.739615
1685 3.13014 -0.658135 2.86344
1686 15.1163 -11.6387 -4.2913
1687 -0.271431 2.6657 -4.47806
1688 4.07508 -9.52636 3.78347
1689 4.18035 -1.59517 -2.36888
1690 5.5715 -0.725894 -10.7245
1691 -1.19166 2.86051 -9.33625
1692 -4.95637 -4.66966 -13.3079
1693 -6.62631 0.0403359 -3.69115
1694 2.63458 3.12932 0.075052
1695 -3.05373 -9.31503 -1.25283
1696 7.11234 4.61087 6.48931
1697 3.62701 -3.92216 -0.270835
1698 -10.3575 4.03288 5.1594
1699 -5.45434 6.57254 0.902943
1700 0.670407 0.148496 1.01693
1701 7.99948 0.507883 -7.42735
1702 3.53507 -0.698449 -3.8959
1703 -2.2309 -6.61481 0.565827
1704 7.78238 9.56442 -4.39847
1705 5.07324 5.02287 1.83205
1706 -1.50358 5.79096 -2.50097
1707 -8.43501 -2.21695 5.26698
1708 -1.24531 7.65471 1.46028
1709 1.34487 5.10378 3.7525
1710 -2.83512 4.38878 5.03334
1711 -5.38367 -0.628181 -0.0594239
1712 2.49298 5.50339 -2.53896
1713 -2.8192 -3.67967 6.02812
1714 -9.78151 -4.72414 -3.65785
1715 1.49586 -5.29275 1.01592
1716 6.83325 0.9083 -0.905748
1717 1.54276 1.95281 3.46668
1718 -4.27306 2.91479 6.13358
1719 -5.49379 -3.54801 4.43269
1720 0.370176 -2.06499 2.7258
1721 -7.11458 -1.48702 3.44832
1722 -4.13411 5.38391 -4.62972
1723 0.918641 2.9126 3.05054
1724 1.70897 -1.94775 0.685378
1725 -2.68041 0.170984 0.274754
1726 1.87586 -4.71143 2.65492
1727 2.52295 -0.651096 -4.28046
1728 -0.464376 -4.8738 6.76099
1729 3.92422 5.05393 -2.71724
1730 8.44742 3.92111 -7.97718
1731 8.18542 -4.29983 9.69084
1732 4.60023 -1.47118 1.2148
1733 4.34088 1.86719 5.7444
1734 -10.7768 -1.00899 5.42848
1735 0.688149 2.34071 -3.56176
1736 -10.8918 -1.29582 -8.73084
1737 -1.4631 8.00914 -3.81495
1738 4.24324 -1.84464 0.028649
1739 6.29336 -2.22372 11.414
1740 6.01491 1.66611 4.18334
1741 2.80864 -5.41664 10.64
1742 -10.0974 -3.69799 -2.26367
1743 4.76341 -4.14187 -8.5101
1744 -5.5589 7.88028 4.30922
1745 -7.19957 4.18708 3.27041
1746 -1.74456 -2.3879 1.8559
1747 5.57141 9.55726 9.07316
1748 1.10625 0.367025 7.75787
1749 -2.04356 -4.42421 -6.98618
1750 0.0710752 9.75062 1.0395
1751 -2.31218 2.8541 -9.15064
1752 -2.33933 2.99691 5.53326
1753 1.83497 12.4009 -4.64777
1754 4.94033 0.56131 -4.2688
1755 1.35407 -9.7802 2.71816
1756 1.34395 2.9861 -2.57733
1757 0.596648 8.78871 2.60143
1758 -0.184116 -1.15519 -3.32769
1759 5.85557 -6.01565 3.76158
1760 -4.0128 -1.03679 -1.64273
1761 -2.0851 0.684572 8.7475
1762 -0.197515 -7.61934 -5.57041
1763 0.574054 4.21072 1.39575
1764 6.00045 8.53689 -4.92931
1765 -2.95691 0.821979 2.44521
1766 0.0566174 -0.305437 -0.56908
1767 7.97655 -0.0748508 -1.2578
1768 -0.437708 13.1315 -3.13927
1769 2.85956 1.70727 1.68851
1770 6.11643 1.43499 0.306724
1771 -6.19052 -4.32137 8.59173
1772 -0.539565 1.7256 7.21066
1773 0.97168 3.29299 -2.25155
1774 -4.69287 -7.77517 6.5252
1775 2.698 9.07029 2.44123
1776 -0.76252 -1.38722 -3.42194
1777 -1.06281 -0.72864 -9.89089
1778 -2.51448 2.29313 4.72421
1779 7.16361 -3.6576 2.40783
1780 -4.25697 -3.50774 4.17599
1781 -0.936004 -5.69667 -3.22138
1782 3.86411 -5.08882 3.47246
1783 -2.58288 -5.03867 -2.9051
1784 -3.01573 11.361 -2.66502
1785 -0.469557 -1.79707 -4.61729
1786 -0.769498 -1.68497 -1.82751
1787 1.22901 2.72367 -2.15408
1788 5.35182 1.21924 2.49303
1789 -1.62374 -7.66102 1.9562
1790 -8.09401 10.4725 -9.11968
1791 -1.13017 4.11662 -2.91401
1792 -1.06064 5.22176 5.40665
1793 6.90015 -2.78032 -4.09806
1794 -3.97314 0.470087 7.21952
1795 -5.76049 -4.15709 12.5563
1796 -7.8658 4.13947 3.88466
1797 -8.09573 0.0150503 4.10472
1798 -5.31134 1.75701 2.63401
1799 6.84902 -8.61191 -2.35883
1800 -2.82591 1.19923 -1.35212
1801 0.232148 1.55322 3.21873
1802 -5.01986 -0.511454 -3.003
1803 5.63369 -5.40591 2.18146
1804 12.89 5.86758 0.62864
1805 -3.17626 -3.65153 -9.29942
1806 -3.1647 -3.56623 -0.447432
1807 0.876431 -2.26381 -3.39792
1808 -2.355 1.19984 6.90587
1809 2.76139 5.01433 -5.54179
1810 0.540664 -1.23661 3.13638
1811 -2.50325 0.599442 -5.73742
1812 0.956894 6.57534 -1.55251
1813 -3.00997 1.00097 -2.33681
1814 4.74196 1.99231 -1.18759
1815 -7.59915 2.53565 -6.30015
1816 11.353 2.07966 5.2187
1817 -1.03346 -2.35228 3.55141
1818 2.95798 1.99434 -7.07536
1819 -6.32957 0.382554 0.0646467
1820 8.69258 -6.01966 3.47787
1821 -0.214015 3.87223 -0.105954
1822 2.1873 5.8754 -7.72453
1823 0.891395 2.76715 0.205119
1824 -2.13086 -6.83526 -0.535081
1825 1.59197 0.727866 1.7826
1826 -7.66058 0.416407 14.4439
1827 7.49706 -0.596878 -8.36211
1828 -0.0239869 1.06526 0.287017
1829 -9.6601 4.40738 4.07975
1830 5.46883 -5.3304 -1.59972
1831 18.8643 -7.69583 -7.27607
1832 -11.3241 0.260161 -0.861699
1833 1.35677 3.2243 4.06734
1834 1.32642 -0.687862 3.38995
1835 1.39485 -10.8256 1.32461
1836 -1.90559 2.28064 3.19994
1837 4.39309 5.71193 4.87611
1838 -0.908672 2.70181 8.86284
1839 -2.63751 1.96268 2.43738
1840 -6.7146 0.293323 -2.34981
1841 -6.68873 9.95157 -0.612573
1842 -3.48468 -0.37263 0.452457
1843 4.36206 3.85756 0.738575
1844 -10.6062 4.18003 1.14362
1845 3.74179 -12.4478 -4.85625
1846 1.50755 -11.7046 1.82071
1847 3.38447 -6.32864 -9.35313
1848 1.90989 8.80045 -0.959398
1849 -3.71974 8.25983 2.21649
1850 -6.5558 -7.42193 -5.36324
1851 -4.22352 -5.56169 0.528302
1852 2.76206 2.16379 -5.80484
1853 3.20369 0.530588 2.00313
1854 2.30438 1.04678 8.00885
1855 0.242217 14.0369 -4.22438
1856 2.21872 -8.78742 -3.69779
1857 2.11986 0.868369 -0.526302
1858 0.823953 -3.83012 -3.35332
1859 -7.4616 -1.62766 12.6784
1860 -4.74151 8.55076 9.53314
1861 2.54967 2.82893 12.5435
1862 3.97912 0.818079 1.75796
1863 -9.21128 -9.46598 0.320342
1864 -4.10617 3.68704 4.95241
1865 -6.19936 5.16568 6.93639
1866 -4.79635 -4.81872 -0.390646
1867 -3.04606 3.47685 0.041072
1868 -0.217834 5.44296 5.22813
1869 2.52475 -3.00048 5.24087
1870 -1.6001 0.124795 -5.38065
1871 1.35587 7.49906 -0.265289
1872 -1.14503 -0.674245 -1.93116
1873 1.91198 3.13476 3.567
1874 -3.80933 1.95068 -4.79654
1875 8.25693 -0.825415 -9.05255
1876 -7.25701 4.43537 1.21711
1877 0.950925 2.03117 10.7523
1878 4.09923 0.519374 7.9587
1879 10.604 -3.16026 12.6067
1880 0.289707 -0.0770566 1.90472
1881 2.82997 -2.82421 7.53808
1882 -3.15942 1.31447 3.25695
1883 -0.347782 0.770286 -4.40284
1884 6.4811 5.0287 2.7426
1885 4.15324 3.77328 -3.28114
1886 5.27542 6.33573 1.5781
1887 7.28282 -4.55443 -3.64604
1888 -3.20627 4.35613 -4.75904
1889 -10.7458 -6.16257 -2.73282
1890 -1.61999 5.67696 7.05247
1891 -2.61925 3.87553 -0.541871
1892 -5.09826 -7.19944 1.58359
1893 -2.2494 2.41003 2.27177
1894 -3.38601 -0.605492 3.59294
1895 6.09869 -3.04265 2.47068
1896 5.56737 -1.84959 -9.53489
1897 -1.76856 -7.47628 5.63087
1898 0.808764 -2.49448 9.37195
1899 -0.43519 2.98438 6.46036
1900 5.46094 -4.41901 -2.12277
1901 -1.56272 1.31082 2.81708
1902 -6.46929 -0.611326 -6.31525
1903 3.11202 8.62503 2.58536
1904 2.44788 0.153816 4.20579
1905 0.315226 10.4984 0.785159
1906 7.65322 0.23964 0.455744
1907 -0.236331 -1.38333 -0.691704
1908 -0.795185 1.1679 8.18295
1909 -10.5028 -3.62182 8.81862
1910 0.76847 4.40998 2.60245
1911 4.70281 4.18043 4.41788
1912 -3.64517 0.565093 -0.494158
1913 -1.16317 -3.96763 7.38344
1914 2.44483 -0.0641133 10.4161
1915 -2.9196 1.61307 -5.66279
1916 1.13236 -5.7227 1.715
1917 -0.0914865 -2.38813 4.58423
1918 -1.53931 0.0338203 5.88003
1919 0.0111542 -0.78064 5.13059
1920 -2.70623 1.50097 5.00631
1921 -3.37102 -0.934147 5.26734
1922 -9.27868 -2.96322 8.27887
1923 -2.38301 4.89575 0.301535
1924 -1.50381 3.76201 14.2955
1925 2.81371 1.21678 5.67352
1926 6.25783 0.380415 5.22471
1927 6.73922 -1.23614 -0.305042
1928 -9.28902 -0.655175 1.94452
1929 -6.00251 -3.99585 -9.2648
1930 7.94228 -9.32767 -7.52932
1931 -1.49892 6.956 -3.88551
1932 1.67571 -4.33019 11.386
1933 -5.24736 -0.328118 3.80446
1934 7.66962 -8.22342 -6.6032
1935 -9.3231 -9.05321 1.3768
1936 -8.12938 0.401716 4.97309
1937 -8.19844 6.63417 -0.996359
1938 1.1129 -4.022 -5.09348
1939 1.67618 0.923846 -1.2174
1940 2.22472 2.89232 -3.74143
1941 0.169437 3.80873 3.04049
1942 -0.796761 9.0188 2.26192
1943 1.6734 2.47492 6.748
1944 1.00349 -7.01121 1.43072
1945 3.34838 -2.62024 2.44361
1946 -0.645481 0.449707 6.53016
1947 16.2592 5.05383 2.16567
1948 0.278104 5.57513 5.39574
1949 -1.22358 0.317588 14.4686
1950 1.93115 4.87902 1.9598
1951 3.81249 0.191297 -3.4661
1952 0.95489 3.96733 5.34718
1953 5.91867 -5.5895 -11.4787
1954 3.47843 1.67344 3.81686
1955 0.411176 0.0433114 6.25412
1956 10.4321 -0.539545 5.28116
1957 7.0709 -6.74126 5.1158
1958 3.33872 -3.97832 -1.56961
1959 -2.44249 6.89568 8.76031
1960 -5.84957 -1.15216 -7.06392
1961 -4.19277 -1.40159 2.99384
1962 -5.25354 3.07502 2.69747
1963 -2.33038 -2.6607 -7.08091
1964 -7.70773 4.72113 2.22406
1965 5.65121 5.2 -7.02907
1966 -9.56736 -9.65066 0.869613
1967 6.9705 0.893357 -0.260629
1968 1.72813 -11.2395 -4.66832
1969 -0.695421 -2.91405 7.61035
1970 3.94549 3.1122 -0.994276
1971 -8.51044 11.6991 2.15402
1972 5.31879 -0.396865 -0.717099
1973 10.4112 -2.65671 -3.976
1974 2.6057 1.28084 0.51114
1975 -1.77793 -1.43434 -2.08819
1976 4.5527 -0.134375 -0.764624
1977 7.85327 -3.8279 3.93553
1978 -4.63979 -4.48709 -6.44173
1979 3.41366 -6.81663 -10.3362
1980 -6.76383 4.04121 -2.53286
1981 -6.42889 -2.73034 0.964579
1982 6.02946 3.53029 -2.15769
1983 2.71013 -1.77288 -1.10559
1984 6.4241 -10.347 -4.88389
1985 -4.17113 1.6748 8.68321
1986 3.97478 -6.47726 9.10962
1987 -12.5623 -2.32579 1.35062
1988 0.687119 4.24481 5.81349
1989 -4.30343 -0.564519 0.389394
1990 -0.814805 -0.100858 5.82132
1991 7.52489 2.11322 4.9067
1992 4.44553 -6.74272 -3.17097
1993 2.22086 -1.86595 2.93021
1994 6.94947 7.86701 8.8284
1995 -6.39316 -4.35412 -0.294556
1996 -4.27463 -1.49662 -7.155
1997 -1.78464 -1.28887 4.03503
1998 -6.79726 -6.20943 5.76169
1999 0.400691 6.61671 10.7919
2000 -6.27518 -3.81943 7.41095
2001 -1.68645 -2.96025 1.34932
2002 1.70495 -7.18507 6.03831
2003 -5.99956 -2.71316 2.79779
2004 5.63246 -0.994856 -7.95077
2005 -4.60404 -3.3532 -5.42062
2006 8.79179 7.15213 -2.1212
2007 3.19123 -5.78477 4.85699
2008 4.10285 -8.05646 -8.59482
2009 2.94015 2.13638 -4.98427
2010 -7.93338 -4.85229 -8.4699
2011 -1.87599 1.04913 -12.3766
2012 -0.5049 -3.34949 -4.48795
2013 5.52092 -6.48713 -5.82724
2014 5.115 2.18637 4.02485
2015 -0.425267 3.83058 3.3822
2016 -2.76024 1.74835 -1.90675
2017 4.77243 -3.44752 -5.11754
2018 3.42939 -2.03314 1.6142
2019 1.26838 3.8946 0.541248
2020 2.36826 10.3171 -2.2304
2021 -0.027909 -3.04973 1.3154
2022 0.0572331 4.14221 8.20931
2023 -0.011893 8.63151 -7.04566
2024 -5.78984 -1.00779 -4.53633
2025 -8.55961 -1.69873 -1.60491
2026 7.70947 3.20359 -2.63622
2027 -12.9854 5.70169 9.29064
2028 -1.36667 0.748163 9.73286
2029 0.0652417 10.7891 -2.28291
2030 -1.1585 -1.3194 -4.72239
2031 -4.68785 1.25979 6.54143
2032 -4.82333 -2.5597 -1.27533
2033 -1.20018 4.05054 2.78695
2034 -4.21344 -4.94582 8.3862
2035 -3.70587 -2.37329 -8.96566
2036 8.5639 0.783484 11.9395
2037 0.722282 -3.30853 -8.04716
2038 -9.99525 -0.56212 -3.95369
2039 -0.272036 0.291521 -3.39258
2040 4.74662 1.72944 2.87087
2041 -9.51574 3.95497 -4.86271
2042 2.28457 -7.96654 5.09775
2043 -5.1825 -0.532685 -3.57035
2044 -0.720053 -4.07537 2.40303
2045 -1.25241 -0.442322 -12.3095
2046 -1.12167 -1.6837 -4.06262
2047 -1.0301 -3.10331 8.46239
2048 -6.09432 -3.02352 1.63755
2049 3.23154 -0.163722 -3.28336
2050 4.33435 1.07692 -0.56994
2051 -0.618848 -3.12749 -1.55957
2052 -0.650785 -4.40572 10.6156
2053 -1.75065 0.440344 5.43596
2054 -5.86787 5.02199 0.089555
2055 -3.10911 -2.97459 -7.65191
2056 -0.921165 -0.488329 6.16503
2057 -0.0157043 -9.5252 2.94186
2058 4.71635 -6.27086 -5.02298
2059 5.43688 -3.0859 0.0714379
2060 4.13918 0.300944 4.03148
2061 2.61299 2.38184 8.37127
2062 -9.42608 10.416 2.14998
2063 1.16325 0.605118 -1.51346
2064 -0.219564 7.00237 7.59108
2065 2.5237 2.45351 -2.59323
2066 7.32474 1.09664 -4.73068
2067 -10.9909 6.2913 -2.28485
2068 4.13278 4.23732 -6.72972
2069 -8.5031 9.19656 -4.40367
2070 4.51703 -4.29067 0.691191
2071 0.138744 -5.75393 7.72804
2072 -0.347506 -1.60662 1.68386
2073 2.88454 2.85079 -1.9946
2074 6.55617 -3.35443 -3.20744
2075 3.12418 4.46712 -3.88806
2076 -2.11384 -5.24001 0.152866
2077 0.48359 2.32853 -0.226134
2078 9.712 2.18599 -9.94204
2079 7.0392 0.0851087 -6.05427
2080 1.41945 -4.23685 5.0928
2081 -0.0201779 -5.16121 -2.15133
2082 -1.76561 1.79615 5.07588
2083 2.13879 -0.757858 -3.05088
2084 -3.92246 12.6256 -0.692961
2085 4.94623 -5.14398 -9.50778
2086 -0.439479 -1.93814 3.50439
2087 -3.69826 -3.51281 3.4403
2088 1.44761 5.18 5.53405
2089 -2.40392 -5.56243 2.58355
2090 -2.87356 -6.69439 -0.892294
2091 -3.52877 11.2848 -5.94773
2092 -9.0453 1.4765 3.62459
2093 6.82412 5.99302 -8.10036
2094 4.17527 0.366909 1.16577
2095 5.32992 5.02004 -1.25405
2096 -1.8832 0.427942 -6.59311
2097 -6.00712 1.40843 -2.9765
2098 0.466802 0.311245 4.02988
2099 3.81327 1.53294 -1.97652
2100 -1.80799 -3.76446 -2.29065
2101 8.03952 8.40981 2.07416
2102 -0.776677 -1.11964 -1.39191
2103 -0.826204 -2.29063 3.74516
2104 -0.546786 1.52983 -0.979223
2105 5.04109 6.03647 5.6205
2106 -3.25684 -0.564559 10.9574
2107 0.244816 -3.36993 -3.07573
2108 -9.39573 8.56491 4.00142
2109 2.74196 -0.384347 2.60362
2110 5.76329 -0.449836 -8.25175
2111 -4.61246 -9.11689 -2.55302
2112 3.05494 0.0601096 -3.79633
2113 5.11767 1.53235 -5.79097
2114 8.36169 -5.61687 2.39138
2115 1.73824 1.79221 11.2036
2116 -1.43833 9.77605 -4.17533
2117 -0.958746 -8.93592 0.573134
2118 -3.34351 1.78769 -0.984732
2119 4.43489 -1.65653 -2.76027
2120 0.417539 -4.61968 5.91924
2121 7.74061 -3.16756 -5.19657
2122 10.9213 6.06916 6.13087
2123 4.76228 4.3157 8.50517
2124 2.01082 -7.86879 -1.97248
2125 1.27801 4.65073 4.40521
2126 0.0149438 8.21029 8.89996
2127 1.76594 1.71382 -5.81001
2128 9.22129 0.850657 0.0413739
2129 -5.88524 6.92159 0.115214
2130 -6.14675 4.97356 -0.374216
2131 -5.31638 8.70255 -3.63564
2132 5.77189 -9.42233 -0.481656
2133 -1.05089 -3.85706 -3.17862
2134 4.4745 -4.37701 6.49938
2135 0.380477 5.65909 -8.98454
2136 3.71342 2.53599 -1.26296
2137 -0.703372 -8.2056 -2.79219
2138 -3.21055 -2.78195 -5.05531
2139 8.31071 8.32689 -0.899329
2140 -4.16796 -5.60963 1.11931
2141 -2.38945 -8.21595 0.257024
2142 -0.572034 -4.33882 -3.46953
2143 -2.84545 7.55809 6.61502
2144 -0.516511 -1.20275 1.60171
2145 -5.68587 -10.6651 0.703936
2146 4.12605 3.98191 -4.97638
2147 4.82601 0.0141155 0.923368
2148 -3.62928 -6.62975 -3.13599
2149 3.99452 -11.0463 -4.168
2150 -7.5178 0.00578118 3.67659
2151 4.96741 -0.977308 -7.32549
2152 6.82607 5.09007 -2.52413
2153 9.66693 4.14621 -2.16716
2154 5.1834 12.1696 5.48158
2155 2.37256 -5.79966 -6.70316
2156 3.62923 -3.98946 5.33999
2157 -2.91704 4.01971 -5.42433
2158 -8.92929 -8.69933 4.30423
2159 1.9662 7.09109 4.96282
2160 -2.00703 -1.67064 -5.18897
2161 -8.60229 4.92295 3.95082
2162 1.58075 6.3278 -5.3642
2163 -14.5858 3.85391 5.71483
2164 -2.01431 -8.2007 7.20079
2165 -3.01234 -2.98681 1.65274
2166 -0.437369 4.52469 -10.8629
2167 -0.670715 7.80649 8.61325
2168 -0.0905608 5.88135 -1.14152
2169 0.574975 4.32383 -2.80304
2170 -5.96238 -1.06869 -1.27869
2171 1.09217 -4.47113 -1.93942
2172 4.02411 0.0934132 -0.555845
2173 1.86853 -3.54332 -6.44398
2174 -0.357528 2.60317 4.97802
2175 -2.77848 2.4014 -4.19486
2176 3.14901 -0.502078 4.13917
2177 -3.6621 1.49632 -0.239913
2178 -9.4141 0.152349 -1.02026
2179 6.02505 5.74717 2.20079
2180 3.96752 -2.4627 -0.96478
2181 -5.39325 -1.38164 -5.11298
2182 -2.8501 0.28812 0.308596
2183 7.80508 -8.48337 -3.07391
2184 3.19971 1.55978 -1.55221
2185 0.424793 0.104071 -4.76919
2186 -1.61883 -7.36446 2.8075
2187 4.44179 3.14087 2.2412
2188 -2.63841 0.308399 -4.4269
2189 -10.935 5.31482 1.27182
2190 -0.678329 -6.97897 -0.422114
2191 5.12747 0.226243 6.59043
2192 -7.72649 5.41678 -6.4332
2193 -9.01731 1.18901 3.18926
2194 2.73518 6.71552 -5.8652
2195 -2.4125 -4.54137 1.12168
2196 4.14437 0.93135 -8.75551
2197 1.68376 -5.45366 -9.90175
2198 8.26538 5.6658 0.748418
2199 2.37588 6.42883 1.05881
2200 -4.33424 3.49213 -5.09889
2201 -0.93525 0.520521 -3.43832
2202 -1.26494 -1.555 -1.29259
2203 1.55945 1.24249 2.46413
2204 -10.302 -0.32713 4.31123
2205 -3.89591 -6.4122 -0.0158226
2206 1.13984 -0.716835 -1.53611
2207 -13.6689 -1.96587 -7.52448
2208 -3.951 -1.15719 7.46611
2209 2.81756 -0.852695 2.51128
2210 0.0244715 5.35787 10.961
2211 -0.466561 -0.584532 -3.00955
2212 5.34026 -5.03292 -2.04595
2213 -3.85835 -6.02012 -0.90906
2214 -3.73149 2.12044 -2.16323
2215 9.18637 4.8587 7.61338
2216 8.07722 -6.50608 -14.1368
2217 3.07578 0.574729 -2.88437
2218 2.58338 4.86703 10.2474
2219 1.3057 -0.937861 6.02855
2220 -3.26777 0.310118 -1.73041
2221 4.72024 -1.16847 2.43712
2222 -6.23204 0.977987 0.136949
2223 12.0826 -13.1832 -1.76874
2224 -0.315433 5.55111 0.507653
2225 8.48141 -1.18892 -6.78073
2226 0.491543 -1.67593 -2.96313
2227 -4.79363 -0.448225 4.95057
2228 -1.1897 -0.879241 3.83514
2229 1.57896 -3.48096 -1.83432
2230 4.936 -8.25315 -4.72494
2231 -7.85308 -6.41137 8.95936
2232 -11.9009 9.01691 -0.644322
2233 3.5983 7.14505 -1.34787
2234 1.26065 -3.80471 0.00564672
2235 -4.27796 -6.6139 1.46076
2236 6.8964 3.53805 0.453458
2237 -4.78339 -1.95449 -6.96247
2238 8.10615 5.08259 0.129742
2239 -5.40465 1.64397 -7.32592
2240 -7.71081 5.84075 1.72377
2241 5.40034 3.91715 2.68191
2242 -1.21595 -0.967634 4.06871
2243 -7.77548 -6.49804 -3.86378
2244 0.614479 1.95313 5.83599
2245 11.9112 2.88526 4.20991
2246 2.76121 3.57719 -3.58323
2247 -0.853813 1.00957 -4.59883
2248 -0.374003 8.78758 -1.32153
2249 -3.7449 -0.74072 9.38818
2250 2.33433 7.14293 5.51759
2251 2.60518 -2.51877 1.25429
2252 -7.57121 -2.88152 -2.75737
2253 2.18103 6.07011 3.7007
2254 -2.80898 10.0661 -0.844529
2255 5.20854 -0.197448 1.9337
2256 -3.30584 2.3629 -3.24911
2257 -6.87592 6.79712 5.73238
2258 2.59404 -0.228613 -2.16285
2259 0.473243 1.97902 -5.17444
2260 -14.7544 -5.31082 -2.23862
2261 -0.38198 -6.76675 5.46706
2262 1.46143 7.40417 -1.91766
2263 2.38043 2.98503 0.196929
2264 -4.54881 -0.476327 -3.66392
2265 5.54564 -2.24465 1.09435
2266 -7.09761 0.387032 4.04948
2267 -7.31075 -5.8154 -9.90569
2268 -5.68388 -7.12754 -1.85927
2269 2.2279 3.11463 -1.96126
2270 2.46855 6.17612 -4.0902
2271 -9.07382 -5.92281 -13.6478
2272 -2.67876 7.80255 -5.65955
2273 -3.04973 -1.08856 5.83031
2274 -4.40424 -1.83894 -2.26391
2275 -2.22524 7.55655 -0.594046
2276 6.09549 0.121447 7.19959
2277 7.31165 1.92676 2.41897
2278 0.168526 1.93172 -1.90503
2279 2.20976 -1.07095 1.23606
2280 4.43276 -7.49943 0.00142715
2281 -7.65194 -1.12427 -6.71413
2282 3.08532 -7.23658 -7.85747
2283 1.05205 -3.40962 -2.85372
2284 -4.20649 2.20467 0.726234
2285 2.44344 -6.57388 -0.852952
2286 1.59967 -4.98139 5.467
2287 0.14343 -1.71337 1.12234
2288 0.968388 -1.05075 -1.2914
2289 -6.53945 2.35705 -3.94195
2290 -3.00095 9.61012 -0.235519
2291 0.566456 0.813631 -8.28931
2292 -1.33646 -1.70284 -1.90542
2293 -5.80069 1.58899 -3.26627
2294 -4.3705 -2.56707 1.52093
2295 4.63109 -7.75909 -3.89201
2296 -2.96659 3.90813 -8.22696
2297 4.9483 2.33075 -5.80654
2298 3.04627 -2.15953 12.1862
2299 -4.31491 4.10471 -5.96739
2300 -0.554746 -4.06961 -4.33425
2301 -0.266999 -5.1208 9.71607
2302 2.38184 4.37209 -3.01809
2303 -3.42777 -0.458681 8.32631
2304 5.48521 -6.01114 -8.21294
2305 5.9412 5.49029 -1.95099
2306 2.98284 8.0986 -2.05991
2307 1.82811 -11.9817 -3.38257
2308 -4.10307 -4.47201 4.22488
2309 2.88911 -7.49007 3.24143
2310 -1.11908 2.59384 -3.18492
2311 9.66946 0.285271 -4.77705
2312 -6.99393 5.70292 -0.167636
2313 -4.74167 4.22987 2.50347
2314 5.12625 0.767131 2.98328
2315 -2.30376 1.10933 1.39643
2316 1.50403 -9.58065 10.8461
2317 -2.34122 -3.14923 7.86022
2318 -1.59806 -1.09232 -2.81155
2319 4.99525 -3.81807 2.11929
2320 1.12058 7.55133 -5.86822
2321 1.11152 4.07512 -5.36378
2322 -4.45051 2.56421 4.33593
2323 2.18857 -3.29157 -0.311352
2324 4.56327 -0.430303 14.2466
2325 -8.01383 0.256236 -0.0902985
2326 -4.83748 -8.77177 -5.85607
2327 -3.23872 1.87155 0.327814
2328 1.019 -2.78565 3.67525
2329 -5.88496 -1.7246 -0.826446
2330 4.5283 -1.62244 -3.78202
2331 4.73533 -5.9295 1.82005
2332 -0.990975 1.73515 7.64752
2333 -8.92775 -0.880267 1.18691
2334 0.116032 1.2014 -6.02549
2335 1.15182 4.93659 -6.91969
2336 -2.60855 -9.1471 4.08016
2337 -8.61977 2.62535 -0.0734692
2338 -6.39406 5.38836 -1.61447
2339 2.71671 -0.600901 5.94141
2340 -2.07461 -2.84291 6.97081
2341 5.10837 3.33488 2.75185
2342 8.06053 1.43616 1.86026
2343 -0.325705 -0.295819 2.74148
2344 -5.15482 1.19865 -3.44502
2345 0.88812 1.04509 0.833005
2346 8.15104 -0.883097 -8.84213
2347 2.53698 -6.60057 -8.51531
2348 2.95822 -16.8139 5.43766
2349 0.965468 -0.281475 -2.8277
2350 5.91592 6.63716 -5.39543
2351 -2.62466 0.867759 1.55654
2352 -7.81845 6.99095 0.508911
2353 -1.36792 4.42276 -7.11658
2354 5.57245 -0.463822 5.06098
2355 -4.82528 0.313705 3.35078
2356 6.22646 -4.76722 -4.06322
2357 1.93715 -1.33045 -1.47614
2358 -4.18941 10.6189 1.92225
2359 3.69092 -0.427003 -4.98621
2360 -4.28161 1.08592 -1.70753
2361 -11.7002 -5.64879 -10.9424
2362 1.90346 4.87539 1.79878
2363 6.57262 -2.94621 -0.345698
2364 -2.80483 -4.66899 0.7028
2365 -3.55157 0.0366716 4.84831
2366 0.657005 -0.588809 -4.58719
2367 -4.98775 2.96138 -1.77602
2368 -5.12354 -3.88364 3.82359
2369 0.695193 8.81343 -6.9898
2370 -3.34871 1.30351 -1.17531
2371 1.67725 5.1686 -0.749751
2372 2.47458 10.8631 0.171805
2373 -3.27758 -10.8601 -4.35822
2374 0.139405 2.02401 1.62302
2375 -4.32918 -3.70831 -2.74372
2376 2.79861 8.46086 -1.4574
2377 1.58452 1.93177 3.38821
2378 0.130478 -0.510798 2.99354
2379 0.415899 -7.93942 -2.31461
2380 -0.293358 -1.52698 -2.04163
2381 -0.374484 3.20288 -1.12896
2382 0.0953251 -0.0534177 4.75858
2383 0.813 -2.87177 -5.24894
2384 -5.619 -0.807244 0.301907
2385 2.00986 -2.58133 5.10368
2386 -0.111014 -3.26134 -4.50628
2387 -8.58068 -1.66032 0.995546
2388 -10.5999 4.58074 -6.94347
2389 4.0378 3.72546 10.8957
2390 -6.45129 -5.43641 -2.43472
2391 10.4172 4.41768 -0.607842
2392 -2.82936 -1.14989 0.350427
2393 -2.6026 5.59902 -5.46425
2394 3.95077 2.381 7.03032
2395 -7.89929 4.91359 -4.38042
2396 -1.39644 -0.521426 4.75105
2397 -0.457578 -0.487318 -1.72466
2398 3.177 -3.28461 -5.73653
2399 5.99935 6.14253 -0.390559
2400 3.11168 -0.152001 1.09107
2401 -3.60449 -1.44063 -0.724358
2402 7.47018 -7.33378 2.06433
2403 4.85765 -0.00275486 7.87378
2404 -10.8907 -7.814 -4.54968
2405 2.51953 -5.75326 2.64958
2406 -1.73018 7.62126 -4.61065
2407 -13.099 -1.01243 -8.15429
2408 2.7254 5.88702 12.7183
2409 -4.02298 -2.09826 -0.534718
2410 -6.8386 4.74993 -7.1727
2411 -5.06906 -2.22097 -0.920285
2412 -0.464232 2.77667 -5.52816
2413 2.20196 -1.10105 -0.239156
2414 0.724557 -3.95985 4.69959
2415 6.81426 -4.74622 2.5734
2416 -9.58413 0.397796 -2.40884
2417 -4.10378 3.68094 -3.02682
2418 -20.4803 -8.97366 -3.45551
2419 0.571605 -2.76398 -0.0648612
2420 -0.753513 1.1106 0.152375
2421 4.94951 0.495499 -14.8605
2422 -1.97405 6.12184 3.08889
2423 -1.41973 -0.113397 -1.88943
2424 -3.23933 0.42777 -2.18723
2425 0.828084 -1.64191 -0.0746754
2426 5.11145 6.57867 -5.5559
2427 -3.933 -1.17251 -1.85171
2428 3.53514 1.07458 10.3207
2429 -9.66109 3.82927 2.39813
2430 4.63715 -0.967426 -4.68271
2431 -5.4088 -7.25647 -0.932168
2432 3.72124 6.84487 -0.537693
2433 0.242821 0.615574 -2.50278
2434 -2.37893 -3.85307 -10.7045
2435 9.88066 10.418 -0.0368695
2436 -4.48395 -8.91962 5.14206
2437 -7.07591 9.34623 4.14406
2438 -1.53872 -7.86466 -4.07891
2439 3.32751 -5.27166 -3.24664
2440 -0.0994573 0.0932377 -1.78577
2441 12.8749 -2.74738 4.45227
2442 -3.50684 12.9732 5.66849
2443 1.34533 3.85023 -2.85905
2444 -1.3741 -2.29675 -3.1982
2445 1.05286 -0.275587 2.64031
2446 -2.54074 -1.16278 -1.78215
2447 -4.02755 -4.80157 8.36755
2448 6.80836 -12.9023 0.616744
2449 2.87878 -0.678024 1.50118
2450 0.805865 -0.923718 2.94407
2451 6.89283 6.76572 -0.976219
2452 -5.24188 0.408261 -1.49427
2453 2.33937 1.68215 -2.85704
2454 2.99227 -0.54907 2.42519
2455 8.52135 5.5531 -3.80279
2456 4.35441 3.73107 4.88171
2457 8.17555 6.05966 -2.08146
2458 -1.8642 2.21609 -1.94949
2459 -8.32927 -5.26147 0.491449
2460 4.38062 -4.4027 3.08026
2461 -0.358545 -0.0725674 -0.249864
2462 6.87426 1.23523 2.36878
2463 0.658232 1.85711 4.3635
2464 -1.66882 2.1561 0.265998
2465 9.44532 -1.44564 -4.76737
2466 -4.01755 -0.0332797 -2.5335
2467 -1.10836 6.28697 0.404645
2468 -4.74966 -5.30205 -1.81368
2469 -3.50644 -11.4881 8.69204
2470 -6.63233 -1.92918 -0.903091
2471 -2.12913 4.78655 -2.78528
2472 2.70875 5.94345 -1.09065
2473 -1.20121 2.82571 -3.246
2474 2.28373 -4.87168 0.297501
2475 9.73236 -1.50086 -8.43173
2476 8.4625 -0.259894 4.82673
2477 12.6811 -4.95462 4.81649
2478 -1.61914 5.33572 -1.82744
2479 -11.588 0.218229 -3.66976
2480 -4.66064 -1.55689 -0.867946
2481 -9.00284 -5.4293 -2.709
2482 -5.66984 11.4718 3.10545
2483 4.48192 3.82106 -1.18238
2484 1.95979 2.45578 9.09993
2485 0.736327 -4.76762 4.36898
2486 -5.80841 -2.57842 -0.404225
2487 -4.33547 -4.00612 -1.70925
2488 8.40081 -4.32321 3.64837
2489 4.69239 -1.41949 -3.69654
2490 -8.02929 6.06737 1.60537
2491 1.1833 -2.47011 0.975673
2492 3.04458 -13.849 -2.80148
2493 1.51559 3.56998 -2.74704
2494 1.71322 -7.12351 -1.13374
2495 -12.8062 1.93443 -7.30999
2496 5.35053 2.23206 -4.58503
2497 -7.76717 -2.27543 -6.84797
2498 -4.68409 1.99594 0.644969
2499 1.06046 8.76557 5.00346
2500 -0.191059 -0.824801 -7.12206
2501 -0.839477 -2.26959 0.922915
2502 9.47804 -1.57812 -2.63884
2503 8.08004 0.789986 -1.90481
2504 -1.66547 3.1164 -2.52959
2505 0.861325 -6.16308 2.07645
2506 -6.56502 -0.418942 3.17853
2507 4.78762 -7.28704 1.1852
2508 -7.59471 1.57818 8.39559
2509 0.948951 3.19311 9.38617
2510 6.35 0.112938 1.52948
2511 0.333543 -3.96709 7.72174
2512 -2.67009 -0.79938 -3.29589
2513 2.59562 -5.46187 -0.523055
2514 -4.74462 -7.83978 6.47148
2515 -7.2939 -0.0512953 -3.18249
2516 8.2911 -2.77795 -4.11926
2517 3.47317 -2.73453 -3.30553
2518 -2.43362 -2.55892 4.61932
2519 -2.80077 -5.05543 2.03998
2520 3.0372 -3.27066 5.51415
2521 0.983368 -8.18427 -3.66276
2522 1.69182 -6.47469 2.87122
2523 -3.54358 7.33621 3.78755
2524 5.32785 9.22079 -1.67487
2525 8.1764 -1.64719 -3.22184
2526 11.9483 -3.09853 -2.94081
2527 1.25891 2.8317 0.0455062
2528 4.9081 -4.47375 -3.83831
2529 -7.54039 3.72702 -0.408145
2530 2.78214 4.18539 -1.02772
2531 -8.58614 -3.43256 3.20477
2532 8.16601 -2.58602 -0.729809
2533 -6.98803 1.01486 2.795
2534 3.55391 1.69332 -4.29417
2535 -5.18392 -0.267689 -1.1055
2536 0.961597 -1.76355 7.37032
2537 4.79053 3.89277 0.154245
2538 2.54945 -8.57873 4.10876
2539 0.436667 0.262383 0.916727
2540 -9.72036 3.29862 -2.37457
2541 -8.31171 5.81297 -5.55722
2542 1.8409 -1.13064 2.3901
2543 -4.19758 -6.91521 -3.95626
2544 -3.44406 10.8903 -1.08484
2545 2.57089 6.37361 -2.66405
2546 -1.33704 1.47042 2.23141
2547 -7.68022 3.31782 3.85404
2548 3.78737 8.65729 -0.821397
2549 -1.20568 0.262086 -10.572
2550 -14.0912 -1.03045 -1.19132
2551 -2.06105 6.65256 -7.9111
2552 8.28167 -0.692102 3.21901
2553 3.42032 6.78847 2.47873
2554 -7.22122 0.118645 -0.924702
2555 1.08842 -4.87454 6.9849
2556 3.73848 -6.38316 -3.61934
2557 -1.84704 -0.0283042 3.38841
2558 2.36056 2.31596 2.96211
2559 5.34745 4.68596 -4.5127
2560 -1.80517 -5.43782 4.15171
2561 -4.36689 -7.17907 1.16678
2562 9.60559 -3.77081 -2.40992
2563 2.4739 1.208 -1.14759
2564 7.01684 -2.11726 -1.12572
2565 -1.49966 -2.85544 -6.91993
2566 -5.57848 5.35591 -0.227003
2567 -2.38737 4.77498 -3.25457
2568 0.97615 8.0752 -5.34066
2569 -3.90176 2.19139 3.41618
2570 14.2761 2.85941 -0.948231
2571 3.93014 4.5115 -1.02781
2572 -5.70275 -0.131133 12.1501
2573 -4.33357 0.658778 5.0399
2574 -1.93336 -0.0162497 5.84383
2575 0.201465 -6.46041 0.417441
2576 5.64336 -5.50454 3.98955
2577 -5.33079 5.65518 -1.17899
2578 -5.54952 -1.80598 -1.32189
2579 1.06845 2.93744 10.6239
2580 -1.13523 -1.75763 3.01463
2581 -1.9331 -3.19121 -1.47861
2582 -7.68699 -5.3123 1.22492
2583 1.39295 2.26666 0.949037
2584 -10.4225 -4.56365 11.6357
2585 -0.743538 7.77042 8.08172
2586 -4.54014 8.42771 -2.20294
2587 6.48101 5.71622 -4.3095
2588 -4.14453 2.59107 6.56112
2589 4.15439 -3.37723 -3.87731
2590 -5.3467 -3.13418 -6.81419
2591 4.36911 -4.34247 2.04296
2592 -6.32015 -2.74401 4.20025
2593 1.43681 -10.8024 5.59004
2594 1.48009 2.49253 10.2199
2595 4.22554 -1.3843 -5.32647
2596 3.13312 -1.3334 1.33418
2597 -0.994597 3.05152 6.17628
2598 -3.2367 -5.52024 2.14766
2599 -0.0433371 3.40253 7.81958
2600 4.37086 -1.98544 5.5138
2601 -6.67978 6.37472 -12.6596
2602 4.11871 7.24665 1.13791
2603 7.79655 -2.87333 0.830688
2604 2.14298 -6.24014 -2.36918
2605 1.63786 -7.15426 -3.45225
2606 -2.34311 -2.82852 11.5751
2607 1.10951 -6.30362 -1.6854
2608 0.300851 0.460099 3.46898
2609 -7.38523 3.05718 -1.05751
2610 -4.57291 -4.52162 0.014857
2611 6.45494 -5.48137 -8.65215
2612 -7.13821 -0.15839 3.1106
2613 5.52296 -5.92577 -1.23609
2614 6.56935 6.19915 -7.68649
2615 -7.71273 1.31349 -2.39855
2616 3.13542 2.57034 2.72946
2617 -3.96593 -2.96952 -5.27569
2618 3.18398 -4.91854 6.01982
2619 14.0727 0.262253 -1.91684
2620 11.5042 0.00973536 -2.60597
2621 1.11419 -1.27934 -8.16468
2622 9.23928 -4.34215 -1.12221
2623 4.00169 -7.07754 8.11814
2624 -2.87785 -3.06223 -4.591
2625 -7.25725 0.319966 0.382236
2626 6.04085 0.0267132 7.81727
2627 5.94466 -1.69598 2.48147
2628 1.01567 -2.78884 -5.84813
2629 -0.437456 -7.67324 2.45339
2630 -0.778338 5.66088 3.5282
2631 0.153311 3.3486 1.8032
2632 0.0502783 -3.06915 -0.278654
2633 -4.06662 3.53801 -2.25608
2634 3.5791 1.31929 -4.74363
2635 0.466397 -4.9987 1.17274
2636 -0.711539 5.21165 -6.9783
2637 1.60539 -5.84905 9.90695
2638 3.90091 1.41108 -13.0618
2639 0.494361 -8.4055 -8.84928
2640 4.13819 6.27066 0.423315
2641 -1.20397 3.37476 -5.26334
2642 6.97347 0.629133 -4.47621
2643 -12.0564 4.14996 -3.97103
2644 -0.346642 -5.35219 2.88415
2645 -5.97255 -9.40062 -3.15871
2646 -3.5964 1.40236 1.32114
2647 0.906108 -3.13725 1.334
2648 -6.80324 1.39239 -1.43619
2649 -0.595994 -2.63192 9.5827
2650 -0.846023 0.441282 -3.8836
2651 3.06243 -5.94277 6.11396
2652 2.97731 1.12621 -8.55114
2653 0.569676 -1.91286 -10.6118
2654 6.02449 1.02123 -1.08843
2655 3.61906 1.70877 -3.39122
2656 -8.17455 -5.36615 -0.227148
2657 -3.68381 1.4397 -7.55841
2658 7.28508 -5.73529 -5.01887
2659 -5.30615 3.42151 -8.33286
2660 12.5342 3.08698 8.55779
2661 -1.39019 -7.24308 0.854
2662 -10.098 -1.26441 4.32121
2663 -4.83779 -2.17787 1.81835
2664 0.045231 -1.21463 2.83263
2665 -8.1725 6.48988 -4.66364
2666 -6.86625 0.737244 1.01164
2667 10.2908 2.72106 2.55892
2668 4.78569 -7.99456 -3.19569
2669 6.99711 2.60974 -4.46812
2670 5.79835 9.48682 7.26997
2671 3.56026 1.75728 -4.47739
2672 11.2614 -4.31095 -5.19
2673 6.15371 2.29496 -5.63705
2674 -0.512366 3.99633 0.74297
2675 -2.09816 -2.77912 0.603174
2676 -0.288591 0.30907 -0.364826
2677 0.830557 -0.895371 6.82576
2678 0.994488 -0.114848 -1.8019
2679 -17.606 -6.963 0.496955
2680 10.7429 -1.71421 0.153652
2681 3.52826 -5.16083 -2.56814
2682 -3.0337 4.31451 1.42813
2683 0.598359 6.61121 -2.74185
2684 -3.215 6.47301 0.80774
2685 -3.71956 8.82875 4.61604
2686 1.71957 1.49126 -12.0053
2687 -9.66511 4.9694 -1.35023
2688 1.39323 -1.00288 -1.14744
2689 0.453209 -9.65394 2.62163
2690 1.45414 -4.89591 -6.82569
2691 -1.51104 -0.31318 -0.588523
2692 1.27922 -0.266983 -0.11478
2693 8.95891 -3.09654 7.24824
2694 -0.0285484 -1.74075 -5.14017
2695 -12.4686 -1.82166 3.13625
2696 -2.02902 -0.844262 -2.04577
2697 6.77085 -7.63758 -6.7032
2698 -3.78596 4.09834 -0.682978
2699 4.26971 -0.567115 -4.88464
2700 1.77052 -3.42321 1.33571
2701 -4.60587 -8.47634 -0.958766
2702 6.3128 10.3031 8.03254
2703 -0.799523 13.6154 -3.59114
2704 -5.30681 -4.72385 -4.44186
2705 3.69172 13.6261 -3.39035
2706 0.946102 0.584069 4.61087
2707 2.08972 -2.80465 -3.03639
2708 2.1276 -3.84947 -2.55311
2709 -2.82377 1.22438 -0.954144
2710 -1.39979 5.12517 6.51006
2711 -5.5301 -0.740897 -5.28574
2712 0.406001 -4.43543 12.3277
2713 8.73791 1.02972 3.16454
2714 3.71443 8.13094 1.77713
2715 -2.18239 7.27063 1.9929
2716 5.1216 5.65253 -4.0557
2717 -1.48901 6.27424 -6.24368
2718 0.54631 -5.65248 0.807668
2719 13.3987 -5.76108 -3.05561
2720 4.09932 4.43266 -4.68976
2721 -3.83795 -0.592371 -4.14292
2722 1.37919 3.14283 -5.54027
2723 14.3742 -5.26039 -11.7
2724 3.26115 -0.0142832 -6.22222
2725 0.609844 -0.0304314 9.21961
2726 -2.79075 -5.94446 5.4217
2727 -3.33395 -0.294549 -2.68079
2728 -0.795746 8.66919 0.969423
2729 1.87747 3.18407 0.116915
2730 10.1791 8.95798 -7.42207
2731 5.16724 -1.95874 -3.17827
2732 0.577958 0.609996 0.406943
2733 -5.70144 -0.439647 -4.01645
2734 -1.83526 1.72579 -3.3075
2735 -2.2719 3.52874 -1.04741
2736 1.76266 5.89447 -8.60367
2737 -0.0132145 7.66681 -1.97891
2738 0.399841 -8.80087 7.05475
2739 8.05925 4.37983 5.66572
2740 -2.64773 -10.6724 10.3091
2741 -0.806214 -5.45548 -10.1359
2742 4.20903 -3.0524 1.09578
2743 1.27506 3.43074 -5.06764
2744 -0.582061 -4.22313 -11.4847
2745 4.14074 -5.21379 2.04082
2746 -4.38535 -3.65743 -0.827599
2747 -3.38608 -0.600827 6.59726
2748 6.87519 -1.75716 0.373158
2749 5.00783 -4.5567 2.01928
2750 -9.76939 -0.446517 -3.10117
2751 -1.04666 10.5376 -6.17999
2752 -5.11713 -8.97495 8.96276
2753 -2.53924 7.37898 -1.14267
2754 7.06843 5.63761 2.53333
2755 1.992 -2.7112 -8.18579
2756 2.63399 -0.626699 2.24137
2757 12.003 1.89058 -1.08162
2758 -1.46871 -2.57596 -5.05622
2759 2.85128 -5.46038 9.65192
2760 -6.46789 0.556397 -4.69037
2761 0.914152 -5.03246 9.709
2762 0.813848 2.19994 -6.09815
2763 14.0006 2.37217 -4.18016
2764 -3.16255 -1.78727 3.25002
2765 3.98095 1.3456 -7.58304
2766 13.7918 -2.48044 -10.401
2767 3.4452 3.74261 -4.35532
2768 11.7913 4.38906 -7.65242
2769 3.24809 5.86747 0.815735
2770 -12.1572 5.33958 -3.43701
2771 -6.92406 -1.62911 -7.48651
2772 2.25424 2.39931 -5.40839
2773 -8.38546 -1.99985 -2.21723
2774 -3.41385 -1.47996 0.262049
2775 -0.149687 0.0812829 -2.50612
2776 -0.779914 0.939932 2.03658
2777 0.681523 1.95248 -3.18796
2778 -0.419378 -2.65336 -6.09107
2779 -6.63529 6.21711 -5.98267
2780 -3.35207 -6.09246 2.07422
2781 -3.48016 1.44252 -3.21914
2782 -2.03065 4.99566 0.502396
2783 -0.004021 -2.6174 -4.40765
2784 4.2542 -1.48405 4.9311
2785 1.4949 5.81867 3.21521
2786 0.831882 -1.20308 0.900608
2787 0.277024 -1.11468 -4.15954
2788 -4.82608 -4.34179 2.75941
2789 -1.25706 6.68249 0.249724
2790 -2.91484 2.86994 -3.30153
2791 -8.35122 3.06573 -11.3485
2792 2.96655 -0.215151 4.33736
2793 -7.3339 -4.48689 3.32825
2794 8.26193 2.57092 11.3446
2795 8.25056 5.67316 4.44769
2796 0.503941 1.17966 -6.73821
2797 4.72394 -0.88008 0.158708
2798 -6.20511 -2.75602 -1.24096
2799 -4.17286 4.97361 0.20584
2800 -1.66023 13.903 -1.80052
2801 -1.14431 8.17806 2.76066
2802 1.47337 5.57091 2.17151
2803 0.645115 1.26267 0.217764
2804 -4.94243 -4.83824 6.99372
2805 -6.01 3.11842 -3.40202
2806 -4.52108 3.15321 -1.25861
2807 -2.30421 6.80824 -1.21086
2808 -1.64394 -2.5401 -11.2824
2809 -2.41902 -1.73926 8.62616
2810 4.53899 6.4577 7.85633
2811 -5.88059 -5.76517 2.43551
2812 -6.94572 0.355912 0.511031
2813 -0.827573 0.810897 3.06403
2814 -0.917397 1.6182 5.1482
2815 5.30055 4.53841 3.58251
2816 -0.972106 2.34525 -1.38198
2817 -8.03403 1.53702 -7.27536
2818 -3.25609 1.10795 -2.13687
2819 4.35482 -3.40774 3.39721
2820 6.51225 3.00383 0.635516
2821 -2.00448 -0.169799 -3.47577
2822 3.17375 4.18631 6.26599
2823 5.04246 -9.50607 4.47246
2824 -2.13125 -2.93487 -0.153318
2825 5.55192 3.51546 -5.62557
2826 0.00888341 3.37104 -0.666202
2827 -1.20825 4.993 1.0088
2828 -5.06808 -0.503687 -2.12134
2829 -3.67595 2.42095 -0.765385
2830 5.28532 1.57322 5.71632
2831 -0.714767 -3.01804 -10.1986
2832 -2.33282 -2.672 3.7174
2833 -4.36738 5.4488 -6.80108
2834 -2.00117 -11.0683 -2.93155
2835 6.11605 0.331317 2.84913
2836 -2.81454 2.61677 1.66886
2837 -1.4079 2.54469 1.31022
2838 4.20202 4.44751 -9.40889
2839 1.20874 5.30143 3.55079
2840 1.8885 0.723542 0.700175
2841 1.91725 5.95685 8.85056
2842 -6.95551 5.32791 -1.72847
2843 -0.8994 -0.217519 1.49316
2844 -3.94636 -1.5882 1.30598
2845 -2.50605 0.750173 3.71778
2846 -7.33912 2.18188 4.10344
2847 8.13912 4.50304 10.3751
2848 -0.521508 3.6793 1.6124
2849 13.1289 -6.20408 -3.51702
2850 -0.265078 -5.0122 -4.62702
2851 6.59601 3.62607 1.44429
2852 0.309947 -3.87642 -10.5433
2853 -1.56546 2.30195 2.54039
2854 -2.40853 1.4394 6.30989
2855 2.84825 -4.45848 -6.48125
2856 10.3068 -5.53347 -3.62219
2857 -0.865184 -4.23921 0.416545
2858 -7.18847 3.73464 4.78777
2859 -5.11069 0.195928 -3.65634
2860 -3.63132 1.93544 0.60275
2861 -4.91725 -15.7463 -8.50246
2862 0.237015 -10.282 -9.1668
2863 -6.89494 2.54389 1.73989
2864 7.53308 -10.4769 7.12416
2865 3.31233 6.08683 0.951272
2866 2.59827 6.88234 0.971255
2867 2.11209 0.143017 1.80793
2868 0.417572 4.91267 -3.14969
2869 6.46427 2.26459 0.328138
2870 -1.21966 -5.70746 -5.08554
2871 5.73845 -6.32051 -0.154306
2872 -2.8749 0.878002 -1.57093
2873 -3.97145 -1.01983 -0.0326425
2874 4.00245 3.43739 4.88914
2875 3.62924 -6.30136 -6.87389
2876 6.62032 -5.10921 11.551
2877 5.12831 -2.98847 6.72401
2878 -1.48325 -0.806955 1.31127
2879 6.60148 -3.6497 6.50146
2880 4.60806 -0.695281 -4.33155
2881 4.80355 1.15029 -1.41938
2882 -1.10213 -3.74984 -1.54706
2883 4.97244 -4.74184 -4.3378
2884 2.54021 -6.5284 7.24492
2885 1.96856 -3.23832 -1.75117
2886 -10.6738 0.076964 0.164995
2887 -0.864044 -2.32941 0.505292
2888 -5.61808 -2.64963 -0.358881
2889 3.3842 1.50805 12.1122
2890 3.51096 -1.36293 6.4321
2891 -0.886535 -10.2967 -0.0551126
2892 1.93135 -5.57916 -3.52627
2893 0.790946 4.65742 9.67018
2894 -7.42712 3.5246 -1.08863
2895 -3.40161 3.96889 4.75047
2896 5.18055 2.65103 1.38356
2897 -7.15932 -3.44878 -1.00798
2898 -6.39046 -1.9111 5.48749
2899 3.07814 -1.17245 -1.21471
2900 -7.20408 -3.81776 -0.618321
2901 4.71123 1.82623 12.1279
2902 -5.98873 2.4904 8.90234
2903 -3.28956 3.4184 6.53741
2904 3.48741 0.881526 -0.0262632
2905 -3.75806 -4.747 7.21239
2906 -14.9892 4.48815 8.48352
2907 3.26005 2.70328 9.843
2908 -4.71205 7.84384 4.88619
2909 -0.158982 -1.99253 -1.80391
2910 -1.29961 5.73326 -5.25266
2911 1.28767 1.86772 0.121228
2912 -0.957533 -1.40514 -6.682
2913 -6.96753 -3.76356 1.71507
2914 -0.120847 7.06239 0.0396261
2915 -4.43619 4.00863 2.96218
2916 2.70882 -6.96812 -2.83455
2917 -4.36433 3.38444 1.151
2918 6.42233 -4.32452 8.79286
2919 -9.17469 -0.00730957 -9.05041
2920 1.39902 6.68302 3.80358
2921 -0.758179 3.90633 5.11515
2922 -2.41948 1.62116 -7.95782
2923 -3.5502 -5.57058 -2.20684
2924 -3.57138 -5.85163 -4.71835
2925 -5.68853 6.41455 -2.01559
2926 -3.55044 5.35123 2.76438
2927 6.06274 -2.328 5.56023
2928 2.79647 -0.188487 12.88
2929 -3.43602 -5.03669 -6.39941
2930 -4.82974 -9.27702 3.18063
2931 3.97281 3.77739 6.33113
2932 -1.73998 6.87096 -1.87061
2933 6.4739 -3.13059 -7.5237
2934 1.25167 6.45056 11.4353
2935 0.0324005 -2.12623 -11.0084
2936 -2.89976 2.69423 -6.52566
2937 8.93067 -3.65703 1.16543
2938 5.60416 2.0317 -5.0391
2939 -3.96248 4.12703 2.16073
2940 -3.7688 2.81976 1.8833
2941 -4.88209 1.02665 2.59719
2942 1.08271 0.29741 3.34877
2943 3.2732 2.63097 0.873679
2944 8.06471 0.301945 -0.564071
2945 -1.23093 8.07865 -7.53036
2946 4.65334 -10.1659 -2.3231
2947 2.20513 -6.95981 -4.74877
2948 3.51978 -2.08658 -1.81203
2949 -4.53486 -0.437711 -0.97227
2950 8.27066 -5.06127 1.09661
2951 5.49983 1.88149 0.0244
2952 1.73286 3.19803 1.74094
2953 0.038498 5.83055 5.39559
2954 -2.1973 5.76574 -10.0763
2955 0.886079 -1.58715 -1.9159
2956 -3.76249 -1.5017 7.63369
2957 -7.08377 5.96165 5.03488
2958 -2.46813 9.59079 3.53134
2959 0.774608 4.58175 16.8378
2960 1.32341 3.37734 6.79449
2961 1.87605 5.79348 5.38441
2962 6.95334 -3.1646 2.23828
2963 6.25837 1.08796 -3.98921
2964 -1.16971 -4.61607 2.48186
2965 -5.74446 -18.6292 3.53519
2966 -4.08439 -2.86227 -5.433
2967 -4.98766 9.83706 13.1075
2968 -5.10455 3.91488 0.569484
2969 -4.89184 -3.24849 5.82189
2970 6.22071 -1.69258 5.80227
2971 -0.254527 -4.1943 -4.10655
2972 -3.14278 -2.65049 -0.0103533
2973 -2.42568 3.39559 -5.55848
2974 6.77796 5.58374 1.73293
2975 1.73062 4.11549 1.27521
2976 -3.26985 -15.5929 -1.83757
2977 4.51624 7.24692 0.575249
2978 -2.96264 -9.22905 -6.49744
2979 -3.20423 -7.00098 1.92688
2980 -0.773285 0.97402 6.9607
2981 -1.52495 3.012 -3.04294
2982 -5.40392 0.464353 -1.28228
2983 -0.387837 -1.93773 -2.62198
2984 1.46934 -1.16247 1.66158
2985 -2.0356 -4.74058 8.82753
2986 -2.88519 0.56897 -3.2836
2987 -8.16455 -14.706 0.238113
2988 11.263 3.48111 -2.58143
2989 3.17122 -4.27482 -6.14619
2990 -7.62784 1.46643 -0.387455
2991 0.030282 3.89393 0.977245
2992 -1.50539 -2.38516 2.46052
2993 7.25217 -0.845186 -1.31431
2994 -2.62147 -5.90474 -3.75976
2995 -9.88581 6.11528 -0.575932
2996 -2.12917 0.187849 4.16699
2997 2.02621 -6.88248 1.10198
2998 -0.942452 -1.74934 2.28372
2999 7.30126 0.786891 -2.06128
3000 -8.55208 5.94206 -3.43036
3001 -5.43908 2.31703 4.26822
3002 0.234576 7.93116 -2.27524
3003 2.74606 5.02523 5.12887
3004 1.02706 -0.148966 4.9933
3005 -4.7939 3.05266 -2.79802
3006 1.30532 -1.21123 -0.0433693
3007 0.360944 -1.57294 1.51985
3008 1.18363 5.44211 -2.09426
3009 0.871298 4.75551 8.12591
3010 -1.40142 -2.36027 -5.26096
3011 -4.31031 4.76234 3.52582
3012 -5.34873 0.619895 4.98836
3013 7.54411 3.60268 1.45763
3014 -4.2125 2.82852 -3.83653
3015 2.97707 3.1147 -13.6116
3016 0.646728 -0.646803 -2.96914
3017 0.618309 2.20105 5.30499
3018 1.35043 -1.14716 -9.2628
3019 1.7043 -0.697442 2.74297
3020 -0.260397 -0.0647231 -2.67235
3021 8.98866 -0.29068 2.55997
3022 -16.1473 2.78233 -5.11213
3023 10.4792 -2.23964 0.230945
3024 9.35618 -4.52491 -1.97869
3025 -2.37503 0.024614 -4.15396
3026 -15.2678 3.28941 -0.0882
3027 4.17498 2.65129 -4.16116
3028 -6.75286 1.69043 1.60326
3029 -6.08582 3.31526 -0.262296
3030 -7.1184 2.05513 -4.71279
3031 -4.85045 -0.94886 1.52736
3032 3.95599 -6.79257 -1.39946
3033 7.17697 5.67134 -4.47836
3034 -4.71669 1.02397 9.32211
3035 2.2624 -10.8908 -5.66246
3036 -10.0093 -6.15013 1.7998
3037 -1.74708 0.875643 6.17358
3038 1.10788 3.35649 -3.35811
3039 -1.7286 2.03677 0.48678
3040 2.94989 -5.55524 1.99957
3041 -0.130287 -2.05267 4.61905
3042 -0.226743 4.05525 6.35943
3043 3.18401 2.59917 0.313868
3044 -0.304108 -6.78949 -4.34457
3045 1.0928 10.569 10.8588
3046 1.55054 1.66557 11.644
3047 -1.25141 -3.35779 -3.15417
3048 -0.676728 -0.0990894 -1.75482
3049 -6.03857 1.04238 -3.60539
3050 -1.70778 0.803106 2.65122
3051 5.46076 1.10359 -10.3592
3052 -1.47745 6.33781 10.3922
3053 -7.6343 6.81901 1.84006
3054 7.95795 -7.41032 3.78904
3055 0.0933283 7.39227 -4.93379
3056 -4.67562 -3.53475 0.137039
3057 -1.96508 0.652544 0.855419
3058 1.79679 -2.08085 -4.49724
3059 3.20515 -6.35694 3.82196
3060 -2.97774 4.89094 -1.79855
3061 -1.78361 -4.46329 -1.45955
3062 2.20832 4.6945 -6.55825
3063 -3.97169 -8.76517 -4.52107
3064 -1.5745 0.314523 0.152435
3065 12.365 2.46157 7.73795
3066 4.6257 -0.241671 2.23342
3067 1.90523 -1.68842 2.51816
3068 -5.27395 -2.92743 -9.03392
3069 -11.8048 2.92837 3.49739
3070 6.21355 6.2302 0.055267
3071 3.50824 5.49874 -1.64577
3072 -0.470862 2.93516 -1.7955
3073 2.14335 -11.7355 3.42799
3074 15.7922 4.41906 1.3227
3075 10.5288 -5.69924 1.39078
3076 -0.59416 -4.21116 -1.96609
3077 1.81338 -2.44391 2.5615
3078 4.94663 4.44812 -6.13374
3079 -13.6337 -6.45243 -0.0339993
3080 2.44065 -5.59632 -4.16009
3081 -0.0251668 -5.22245 -2.09479
3082 -4.70228 1.57306 -12.5796
3083 5.15294 -0.544789 -2.74427
3084 2.17645 -1.51572 -8.78683
3085 1.30481 -6.59678 -5.77458
3086 -1.23064 0.0350048 0.00357329
3087 -1.00882 6.90624 -6.31552
3088 0.473391 -1.19892 0.694993
3089 -16.0975 -7.97432 1.29728
3090 -10.7706 0.280959 4.25723
3091 3.60852 -0.00700579 1.68954
3092 -3.755 -1.27269 7.79313
3093 4.73375 -0.831425 2.80354
3094 -3.13254 -6.27031 -1.9765
3095 -5.88371 -2.84068 -1.49751
3096 -0.995338 4.98157 10.5259
3097 6.06191 -5.55532 5.7266
3098 12.6645 -1.67008 11.3072
3099 -7.24444 0.795008 9.64169
3100 13.6212 -1.42915 -1.74185
3101 0.804201 2.80627 0.235476
3102 -0.65992 -3.46151 -4.93993
3103 -6.27772 -2.90457 3.71539
3104 5.72732 4.12494 0.13282
3105 -0.922002 -9.78059 3.22576
3106 1.74638 7.57275 3.9293
3107 2.81209 -0.0212499 -4.44448
3108 5.51647 -0.91228 -3.23618
3109 -5.35228 -0.0536579 7.53332
3110 5.16942 4.47763 1.62559
3111 4.55934 0.308614 -1.14673
3112 -0.31207 -6.25418 -5.91713
3113 7.40262 1.6297 9.76202
3114 1.72146 2.65405 -8.64625
3115 2.7784 -3.97142 -0.124416
3116 4.40402 -1.07867 -1.23643
3117 2.96997 0.65456 -3.24509
3118 3.03922 -5.4089 0.818122
3119 -0.112565 -11.0686 -0.022964
3120 -6.56754 -4.92434 3.67475
3121 -4.35059 10.9432 3.33721
3122 0.00655982 6.06881 -7.06793
3123 1.1145 -1.5048 -2.3834
3124 -1.08154 -1.01456 -0.966705
3125 -0.557565 0.961629 -2.3051
3126 1.62303 5.55504 -8.64296
3127 6.36833 -4.94134 -3.60725
3128 7.299 2.29707 -1.37356
3129 -5.11523 -6.02319 -0.435759
3130 10.0886 6.84436 0.219849
3131 -5.09261 4.41885 -0.433319
3132 7.12265 5.34787 -1.32582
3133 -4.75754 9.06215 7.17599
3134 -3.31362 1.97528 3.29271
3135 -1.22071 1.5217 -0.902702
3136 2.62915 0.581288 3.80626
3137 -3.98337 -1.20494 6.47906
3138 -2.02722 -0.84578 -9.13294
3139 4.42761 1.87811 10.0353
3140 7.28519 -1.48778 -1.12916
3141 7.07991 0.0787066 -3.82736
3142 -6.90479 -6.00523 -0.027601
3143 6.05251 1.00868 -1.29273
3144 7.61559 2.74984 -2.30825
3145 -4.21158 5.88732 -1.34397
3146 -4.53862 2.59476 4.53317
3147 -7.6333 -0.0593956 5.29471
3148 2.19329 -4.05122 -2.82982
3149 9.78752 -3.18337 1.64613
3150 11.3956 -0.60694 3.79594
3151 -8.38874 0.0315132 8.87008
3152 -6.00777 8.40845 -3.22525
3153 -5.35109 -2.85179 6.52438
3154 -1.06916 1.33949 11.894
3155 -0.181769 9.05711 1.82843
3156 -0.337149 2.29099 4.58079
3157 -1.34864 0.155066 -3.96444
3158 -1.91019 6.17886 -2.1737
3159 -2.28054 -0.606811 -3.29087
3160 -9.05386 -0.442225 2.88498
3161 5.13611 -4.40019 1.21178
3162 0.0348014 -2.36304 -3.90429
3163 3.98449 7.79902 2.33177
3164 5.74284 -3.51676 -7.78684
3165 13.8702 7.71435 5.2876
3166 3.84782 0.470712 1.68912
3167 -2.32511 -1.06815 -4.93694
3168 1.07386 14.2894 -1.94726
3169 3.9134 8.55095 2.771
3170 -2.05521 8.91091 -5.59968
3171 -7.33344 0.753924 -1.91007
3172 3.23318 0.866903 -0.18184
3173 -9.60569 4.75628 6.59762
3174 -4.48812 1.50531 1.21354
3175 -3.00733 -5.45586e-04 5.80353
3176 7.23257 0.889173 4.43547
3177 -9.50664 1.29808 0.879215
3178 -0.160766 1.88487 -1.51386
3179 5.05188 -10.4612 -3.30518
3180 -3.41155 -3.09589 -3.29326
3181 10.1163 -8.03127 7.30485
3182 -0.328306 -0.273491 -5.05442
3183 1.32076 2.51996 3.77892
3184 -5.2641 -0.651719 -9.4965
3185 -6.31716 1.72633 1.73703
3186 0.113985 -2.96037 -0.281677
3187 1.17623 1.86841 10.2438
3188 -0.58563 0.300059 7.18423
3189 5.65754 -2.54019 5.97092
3190 -4.11023 -0.458951 3.37945
3191 -0.701873 -4.14941 -2.53257
3192 -1.74579 5.43944 2.50479
3193 -2.79441 -0.0398128 -0.0629852
3194 0.583437 -2.27471 7.76983
3195 5.10301 1.94298 2.20508
3196 4.61921 1.02657 1.52442
3197 -0.961909 4.68451 2.70374
3198 1.66358 5.37819 -10.7475
3199 -7.41961 2.82551 4.23166
3200 5.72989 1.98162 -10.7486
3201 2.18384 0.972552 -7.89385
3202 -5.34731 16.8161 1.04232
3203 6.7383 -10.348 -1.78094
3204 -3.80531 3.18212 -3.29681
3205 -1.19629 2.53255 -4.2431
3206 0.813881 8.75655 1.31782
3207 -5.71747 0.605448 -2.31685
3208 1.15739 -4.88044 5.64319
3209 -2.90961 5.09447 4.29546
3210 -0.0864716 3.59454 -6.74416
3211 -3.38999 -4.71033 -0.474159
3212 -3.53668 2.22433 -7.91548
3213 -3.51577 4.39595 -1.25658
3214 4.30082 4.72081 4.78721
3215 1.55735 -1.0408 5.10322
3216 -5.1679 2.48216 -10.7323
3217 -2.71815 0.462597 1.21224
3218 -7.28917 2.91278 -1.56246
3219 4.39642 -1.14602 1.96889
3220 6.02611 -0.536391 -7.777
3221 -7.95008 5.26444 3.18384
3222 -2.68439 1.1872 -3.84918
3223 -6.94757 5.16864 -9.30505
3224 9.8063 2.42134 11.7129
3225 -0.160661 -6.2279 5.58792
3226 6.51687 -10.337 2.03506
3227 -1.32921 -7.74221 -11.4105
3228 -7.14845 1.3912 -6.69154
3229 -0.919645 13.2345 -1.09817
3230 -2.3289 2.14054 -4.03637
3231 1.84571 -0.878217 4.85978
3232 -0.899373 -1.35023 3.4272
3233 -3.29509 0.159471 -8.48112
3234 -0.879209 4.0851 -2.36572
3235 3.14545 -1.11595 6.38434
3236 3.20647 6.21046 2.64789
3237 3.72589 -8.73956 3.20735
3238 4.26054 -3.23427 -2.21521
3239 -4.5796 6.48432 4.73419
3240 7.56294 -5.53433 1.87182
3241 2.26213 0.936969 -0.388751
3242 11.2133 -0.631564 -6.20862
3243 0.26099 1.04175 2.51744
3244 -3.01657 1.86415 3.01252
3245 -2.20682 -0.372591 -3.79854
3246 1.64785 -3.56264 -1.09774
3247 1.84168 -5.11416 -0.60906
3248 -0.547196 -0.279353 -2.0135
3249 3.39263 -6.78371 1.67718
3250 -6.06152 -1.47302 3.71796
3251 2.9342 -3.10681 10.6475
3252 2.50127 9.01321 -3.14229
3253 -1.43483 3.36064 -13.9789
3254 -4.57951 -2.59335 -4.04332
3255 4.96927 5.40711 1.83084
3256 -3.22353 -3.56653 -1.14156
3257 10.402 -4.15314 7.42874
3258 5.24678 0.581726 -5.64478
3259 3.35824 1.44134 2.54387
3260 6.87451 5.37655 -6.5978
3261 -7.59453 -8.70003 16.0993
3262 1.74585 -6.13083 -8.16975
3263 -0.793153 -3.31094 -3.91069
3264 -7.53764 5.47751 7.06591
3265 6.25019 -0.477253 11.1709
3266 -1.57882 4.83644 0.524249
3267 1.22898 4.02192 -2.9951
3268 -9.62081 4.76347 9.25009
3269 -4.18162 0.32265 -4.03524
3270 0.517397 -3.33822 3.14066
3271 3.96852 1.28221 -1.37274
3272 0.303203 0.519467 -4.96734
3273 4.33589 -0.280206 -2.30246
3274 -9.28721 2.91552 -1.20855
3275 -2.35872 -1.50492 3.42595
3276 -6.52795 -0.8307 1.0781
3277 -10.2181 1.06453 -1.02701
3278 -3.85025 1.44001 -3.44896
3279 -12.7644 1.55528 -5.73426
3280 6.96892 -0.00680123 2.96356
3281 -3.33251 -3.3043 0.179099
3282 0.514912 -6.72374 -1.12741
3283 1.73834 -12.6114 5.7007
3284 -6.97017 1.51866 0.547364
3285 -1.29896 -3.85713 0.55249
3286 7.44111 -3.92959 8.09799
3287 3.69118 2.02028 1.26114
3288 -2.37308 -0.577087 -3.88237
3289 3.83552 -0.708811 4.66038
3290 2.86606 -4.29046 -3.26131
3291 11.9054 -1.29019 1.94159
3292 -1.77332 2.06137 2.94992
3293 -0.891895 4.23242 3.7624
3294 1.61341 0.324607 1.96818
3295 3.23658 -5.1597 1.06038
3296 5.64787 9.92078 0.4883
3297 13.3663 5.4157 0.917246
3298 -5.69541 -12.067 1.73685
3299 -1.06302 1.15468 -7.53141
3300 -3.84698 -5.48812 -1.43874
3301 -3.97588 -7.21605 -5.44292
3302 8.144 5.71343 0.907363
3303 -1.00389 -6.84535 -8.7431
3304 2.82725 -3.50241 -5.71833
3305 6.62868 -0.714889 -4.58772
3306 -3.75649 3.61902 -4.5133
3307 -6.64007 5.43143 1.51765
3308 9.3942 -0.709601 -7.42883
3309 -3.15887 -1.75508 -0.594135
3310 3.39065 3.85855 1.88327
3311 1.15898 2.62613 1.64435
3312 -5.03172 -5.6396 -0.514801
3313 11.1116 -1.93415 -2.80208
3314 -11.656 10.5685 5.54962
3315 -9.62744 5.05012 -11.0005
3316 -2.91713 1.46724 6.22887
3317 -0.0608401 -3.30714 -5.55638
3318 5.15243 -3.40604 2.16963
3319 -2.87195 5.9526 2.47592
3320 -2.74001 0.376569 -5.04212
3321 0.272263 3.17887 -2.29923
3322 0.0188303 -5.93695 1.43853
3323 2.31088 -4.556 -5.60222
3324 4.00521 3.05904 -0.623758
3325 -9.40276 -4.13219 -3.11097
3326 3.63854 -1.12238 1.13597
3327 -0.55411 2.651 -1.66859
3328 3.46592 -5.08132 0.95291
3329 -1.3545 -1.12645 -9.55938
3330 -0.566125 8.91448 -3.61204
3331 -3.38779 -11.6246 -5.19774
3332 -9.37298 4.71414 -4.1673
3333 -6.15486 7.75953 5.7301
3334 4.15675 -5.44964 1.56701
3335 1.04975 1.57578 6.03041
3336 -0.408004 -0.944056 -7.89125
3337 0.752718 -6.94458 5.32542
3338 9.74826 2.5901 1.41681
3339 1.42805 -2.2123 -0.950681
3340 2.59772 -7.8774 6.27701
3341 -2.77693 3.74786 -1.74317
3342 2.07173 0.0800076 -0.461097
3343 2.75644 -6.30426 -3.0525
3344 -7.73863 9.20403 -5.96699
3345 0.988933 -2.53627 -0.722997
3346 -9.81088 1.00726 -5.04413
3347 -4.2807 -4.06968 -5.2071
3348 -1.63931 -1.77975 -9.87169
3349 -1.69007 1.73918 10.3634
3350 -2.26959 4.93018 -2.58922
3351 -0.269887 6.9678 7.62156
3352 -3.64847 -2.89359 2.86874
3353 16.3811 0.361818 6.55711
3354 4.4528 -4.88776 -5.99302
3355 -7.07507 6.69132 -1.31428
3356 2.58093 -0.0926926 0.15549
3357 -7.52916 -4.90677 5.01398
3358 -7.72976 1.06377 -0.035741
3359 -3.49197 9.52715 0.95103
3360 -6.56526 1.28764 6.15563
3361 2.04952 9.75854 10.7885
3362 7.04651 4.25146 5.65075
3363 13.237 -0.198108 0.407505
3364 3.66319 -0.418193 -6.70567
3365 -2.84643 0.314415 5.93539
3366 -6.06474 6.83936 3.68674
3367 -1.06122 -10.347 2.88217
3368 -5.91771 -3.98987 -3.30348
3369 1.11243 -4.81308 -0.815694
3370 -3.14563 6.27208 -1.40162
3371 4.84778 -0.997437 10.8806
3372 9.04219 -0.412056 0.978428
3373 7.49815 -14.3943 8.66732
3374 -3.39042 -2.60166 -8.83084
3375 3.27117 1.34657 7.69203
3376 -11.7443 3.58481 5.76706
3377 -0.372723 -11.3193 0.560679
3378 -3.25638 1.88041 -7.81068
3379 5.0066 -1.50363 2.09823
3380 -0.21133 -9.46556 -1.77713
3381 -5.82954 5.91178 -10.6321
3382 4.64008 0.917429 8.15335
3383 -2.76794 -5.80358 -0.424418
3384 4.05551 -2.22488 1.04961
3385 1.11641 -2.96015 5.21577
3386 -3.2712 8.34045 4.36565
3387 -9.59431 -2.51613 -3.66391
3388 5.35037 5.69006 5.22243
3389 10.2033 -2.12592 -8.17983
3390 -2.12982 -0.476878 7.29675
3391 -2.90813 3.75244 5.51006
3392 2.89915 -3.75859 6.02185
3393 -5.79647 -2.48288 2.65426
3394 4.41769 4.32755 8.09636
3395 0.608027 -5.32305 -4.68803
3396 -1.41962 8.89945 -0.43254
3397 3.20887 7.84296 3.72788
3398 6.50296 -5.51478 0.949532
3399 -0.133444 3.31643 -3.15801
3400 -2.15931 6.54006 -3.71736
3401 8.85194 -1.06245 8.07657
3402 1.67045 1.43972 -6.70005
3403 0.660296 -0.472998 2.54551
3404 -5.80519 8.55178 -9.185
3405 9.02163 1.68682 -2.62627
3406 4.01445 -1.99427 -0.60625
3407 1.17491 -0.236015 5.74628
3408 -1.67166 -6.2165 4.43247
3409 -6.07547 -0.320156 2.80929
3410 4.30089 0.231006 1.2913
3411 0.421182 6.91444 4.2664
3412 8.76929 5.54623 -2.30929
3413 -0.588322 4.97217 -6.56984
3414 -0.0633441 -1.50395 3.5549
3415 -0.873408 -8.04495 3.88627
3416 1.8104 -2.01529 1.09451
3417 1.13001 3.59808 5.80416
3418 5.53716 1.04609 5.44473
3419 7.78799 -0.0602704 -0.951511
3420 3.64122 15.1102 -12.7646
3421 -0.368141 -3.62163 -0.449642
3422 -7.67153 0.555295 3.41907
3423 5.07707 -6.53306 8.63641
3424 0.473818 -1.07644 -3.63826
3425 -0.68752 -10.6865 1.58441
3426 -4.14038 -6.91465 -1.39637
3427 -5.78002 -4.99644 -1.45039
3428 -4.46312 -5.12533 3.57376
3429 4.31398 -6.34177 -0.892469
3430 -0.153286 -3.77308 2.6754
3431 7.84379 4.15943 3.16548
3432 -4.89149 0.1314 -4.36763
3433 -2.82353 -1.56576 3.77873
3434 1.80049 -4.75273 -2.84458
3435 -0.755776 -1.47632 1.253
3436 -4.76559 -5.11456 4.931
3437 -6.22008 -1.8655 -5.0435
3438 6.82337 1.17768 -0.224294
3439 7.50856 -4.34475 3.46266
3440 0.988196 -2.38753 -4.40073
3441 -1.38231 3.98454 -0.503221
3442 -3.10851 10.3599 0.458577
3443 0.26446 1.30079 -0.364783
3444 4.7545 7.99965 -7.10488
3445 0.954066 -4.13345 1.98857
3446 -2.46156 1.05621 -3.5211
3447 0.204117 1.85761 3.0109
3448 -4.05022 -6.75475 -9.72406
3449 7.84552 -2.78164 -5.61666
3450 -8.86785 -5.42906 -2.25035
3451 3.89431 -6.57045 -1.22893
3452 -1.6917 -3.64998 -2.89556
3453 7.04555 5.20936 -3.62415
3454 10.5272 1.83302 -2.22595
3455 0.149869 2.49854 1.87509
3456 0.427528 3.10697 2.13121
3457 -5.69336 1.91435 2.00015
3458 -2.63438 0.032241 -2.75323
3459 5.74217 -4.96271 6.44427
3460 0.68337 -3.40777 2.41757
3461 6.66527 5.93013 -0.775523
3462 7.11432 0.439256 1.92125
3463 -6.62051 -1.20838 -0.362982
3464 2.89049 1.60217 -5.05192
3465 8.77075 5.34499 -10.2699
3466 -6.34809 6.20647 10.6199
3467 -4.83137 1.3932 2.24995
3468 -0.221448 0.845286 2.36401
3469 -0.623334 -4.49616 -1.58817
3470 -3.91656 0.0590856 1.07006
3471 -3.35823 -10.1419 -6.39181
3472 -4.26317 2.32622 13.4287
3473 -1.39791 -2.4665 -2.22724
3474 0.620612 -6.99373 -0.603038
3475 -2.10613 -1.08225 1.25741
3476 -4.2959 -1.05699 1.64937
3477 -3.59255 7.55918 -8.25759
3478 4.15782 -0.413169 -0.683977
3479 -0.947115 1.23837 7.48095
3480 -0.981259 -8.48449 2.26529
3481 3.90311 1.11035 -4.70848
3482 7.99232 0.210076 2.80476
3483 -1.95632 -0.504483 1.83816
3484 -3.42052 -7.6885 -6.90919
3485 8.70779 3.9094 3.83925
3486 3.57927 1.16826 6.54958
3487 5.89614 -3.49144 0.649398
3488 1.25107 -6.17014 -8.86764
3489 2.06662 -9.682 -10.8394
3490 0.508408 -4.78219 -2.95865
3491 5.26172 2.18936 1.69145
3492 1.60348 -2.50855 -5.06029
3493 6.65603 -2.14729 -2.51866
3494 -8.01392 3.87792 -4.65756
3495 6.84488 -2.11094 -5.44516
3496 -1.69898 -2.11834 5.92878
3497 4.97486 -0.654097 2.65425
3498 -1.75996 3.34864 -2.62579
3499 1.67298 -2.96585 -8.33519
3500 5.12566 10.569 11.9891
3501 -2.54214 4.16445 3.7752
3502 0.237403 -1.50203 -8.3024
3503 -7.52894 -6.17918 -4.91893
3504 1.1463 0.192025 3.90573
3505 -5.55066 1.12363 6.66722
3506 -2.32013 2.48235 0.254073
3507 -0.0769944 -3.17926 -3.37541
3508 -6.64365 -7.97683 4.08025
3509 7.00176 -1.19244 3.88005
3510 3.8717 1.19502 -0.952582
3511 -0.894984 -2.37247 -8.11685
3512 -3.90002 -0.971811 -5.17586
3513 -1.55987 -0.465559 -3.06533
3514 2.59759 1.18655 -0.644534
3515 -0.752907 3.81214 -1.64032
3516 -6.50892 6.28781 -3.20846
3517 -5.56084 3.30625 -6.27785
3518 -7.74653 -3.43061 -6.08941
3519 6.61151 7.69875 10.5207
3520 -0.848838 2.21515 -3.18263
3521 1.84403 10.7583 -7.16229
3522 6.83377 2.88729 3.59552
3523 -2.34525 -0.253284 -8.63829
3524 -1.44304 -0.476032 4.16856
3525 -8.16833 1.89466 3.66751
3526 -0.339023 4.83263 -6.32261
3527 0.423454 -7.98951 -2.18472
3528 0.349819 1.13072 -3.87108
3529 2.63945 -6.40591 3.05885
3530 -4.94379 1.98172 -5.52956
3531 4.60717 2.08261 1.10265
3532 -6.23215 -1.82133 -0.810822
3533 -6.62661 5.92472 14.3757
3534 -2.43203 -3.86305 -2.46299
3535 -3.58429 -7.95383 3.06991
3536 -0.310561 -8.06927 -4.79085
3537 -5.17168 -5.66506 -4.14735
3538 -1.33364 -2.36734 4.67035
3539 -9.55075 -3.66573 3.4923
3540 3.02896 -8.77781 0.86796
3541 11.8226 -5.89055 -7.60676
3542 3.50309 -5.27495 -7.22007
3543 -0.50903 2.70427 2.17058
3544 5.47029 4.74323 -0.405878
3545 -4.63541 14.5278 -1.29794
3546 -3.22292 -1.45938 -5.42843
3547 4.26955 1.52602 5.16884
3548 6.35971 -1.63232 5.27487
3549 3.08586 2.85343 -9.53965
3550 -8.58998 6.47779 5.31802
3551 -0.26607 0.542845 -8.71595
3552 -9.5662 -3.66427 -1.88965
3553 -0.903808 -2.41265 -3.79377
3554 -7.95606 -8.91587 4.27273
3555 -2.5059 -3.78609 0.958608
3556 0.229979 -3.35187 -6.10284
3557 -0.462359 2.95109 5.45724
3558 2.98285 -3.7385 -15.6156
3559 -1.85303 6.48133 1.45881
3560 -0.724679 2.65312 5.91485
3561 3.50794 4.38542 -3.18089
3562 -1.9801 3.57928 -0.599744
3563 8.87049 -2.89007 2.42257
3564 2.03783 9.41694 2.89016
3565 3.50699 6.37986 1.44907
3566 -7.66071 6.0187 -3.22802
3567 -4.06668 6.51484 -11.8287
3568 2.63061 -5.43945 -5.1032
3569 -7.37851 1.55795 -5.52737
3570 2.65617 -2.38311 1.0813
3571 0.207142 0.789562 1.7747
3572 0.246455 -0.503229 -4.83694
3573 -1.46039 -8.08447 0.153539
3574 -1.19767 8.04789 0.808562
3575 3.89247 2.79268 7.8492
3576 -4.59178 1.93282 11.7658
3577 2.85013 -0.719986 2.73745
3578 -1.36027 1.22862 5.0131
3579 -4.75686 4.71427 -1.12444
3580 6.11054 2.05438 1.71612
3581 4.70712 -2.50421 -1.51873
3582 2.34282 8.70022 -1.77967
3583 4.91836 -0.333721 -2.29446
3584 6.77588 -10.5996 1.31317
3585 0.685147 2.64519 5.17471
3586 5.25424 0.0512788 1.32919
3587 11.2392 4.31253 5.92962
3588 -0.641814 -4.05576 -3.14404
3589 -2.15682 5.22835 3.71149
3590 -6.05467 -3.8635 3.05692
3591 9.98018 9.44889 5.00287
3592 -2.5741 4.43454 -1.46279
3593 1.72969 5.02582 4.5058
3594 0.788081 -0.0449109 3.94545
3595 7.9911 2.67641 -7.22616
3596 -3.2461 -4.18536 7.30272
3597 -1.08718 7.27233 6.58211
3598 -0.140936 4.70731 0.588381
3599 0.108355 10.1327 4.34703
3600 -5.35491 -0.744415 -7.16511
3601 -10.495 -3.24596 5.23545
3602 4.11474 5.55215 5.22654
3603 3.80718 0.35682 -7.35303
3604 -8.25596 -3.18369 -1.14028
3605 1.18684 -6.25067 -3.72101
3606 -0.643883 6.11083 -4.40984
3607 -4.5839 -5.24962 5.787
3608 4.29109 -2.72592 2.82054
3609 -1.64831 -5.86554 -5.87842
3610 -1.45451 9.97907 -3.97876
3611 -1.73101 1.40266 4.46547
3612 -2.75999 -0.522503 -1.35406
3613 -4.56155 4.14042 0.793716
3614 -6.88511 2.14852 -0.311018
3615 -1.93678 -0.634463 -0.310819
3616 0.312513 5.80314 -1.59477
3617 3.75654 4.39983 8.0482
3618 0.692899 -10.569 2.55676
3619 7.23067 2.83738 -3.04064
3620 -5.38069 -3.07649 13.4715
3621 0.307442 6.73163 3.69505
3622 4.85458 11.5661 0.406621
3623 -2.91091 4.41489 -7.17123
3624 0.992382 5.42109 -0.196834
3625 -0.388898 6.32509 -2.73397
3626 1.94835 4.86139 -3.3497
3627 6.50832 5.81372 2.48851
3628 -5.82732 -4.28447 -2.97314
3629 2.38303 -8.59896 -6.66647
3630 -2.18401 -3.8853 -3.00503
3631 5.60585 3.51298 4.8699
3632 -1.3199 1.26744 -5.97604
3633 -7.21915 3.07085 -1.31685
3634 -6.65276 1.0657 4.40422
3635 -3.50824 -0.193692 -1.90907
3636 -9.53923 6.1066 -0.0962109
3637 3.69758 -1.31556 -5.61762
3638 -1.4765 -8.25839 6.07958
3639 -5.52558 -3.66667 4.41447
3640 -0.840633 4.67981 6.51744
3641 -2.21248 2.63775 0.609834
3642 2.87275 -0.458875 5.29716
3643 -0.278 2.75584 1.83456
3644 0.619235 3.1635 -3.89137
3645 1.56161 -10.725 6.81964
3646 -2.05207 0.517948 0.714526
3647 -4.97208 10.0606 1.74688
3648 0.774514 0.367591 -5.46214
3649 3.58603 1.83067 -0.399599
3650 -1.71688 0.589153 -5.51039
3651 10.802 -1.75235 5.21068
3652 -3.89846 -2.85027 -4.74918
3653 8.44455 -1.88764 8.25015
3654 2.86746 5.47667 -1.38386
3655 -4.89426 1.29461 -10.7242
3656 1.24869 3.76511 -0.636625
3657 4.14545 -0.723682 -0.84307
3658 -1.95228 -1.87005 -2.72945
3659 5.28099 4.53907 3.70903
3660 3.20385 -3.0597 4.74006
3661 8.64566 4.61515 4.16793
3662 8.21136 6.44128 -6.38929
3663 3.57956 -0.834036 1.617
3664 -4.84957 0.222928 -0.299458
3665 -6.38345 3.31677 1.46978
3666 -2.94645 -7.02275 3.37209
3667 4.46915 -3.47301 -2.57053
3668 2.30841 1.68158 -1.55152
3669 0.932433 -2.56501 -2.14433
3670 1.5744 -2.86211 -2.23692
3671 3.36943 4.89081 -2.74988
3672 3.61543 1.99971 0.478221
3673 -2.21907 5.11042 6.48966
3674 3.53073 1.71954 5.1641
3675 -1.18042 6.26858 -7.19683
3676 3.02416 -0.586517 -1.20461
3677 -2.84049 -10.4414 7.18619
3678 -1.07818 -4.68081 -3.18885
3679 1.26607 0.990124 3.80343
3680 -3.657 -7.18219 0.60037
3681 2.46252 -0.912909 -3.42187
3682 2.43617 -3.08731 -7.49224
3683 2.29785 -0.824745 -2.52563
3684 0.360644 4.37457 5.49802
3685 7.90215 10.7957 0.581477
3686 1.25671 0.296115 1.82193
3687 -2.11032 4.08141 -9.98005
3688 5.18014 10.6826 3.75217
3689 2.27249 -7.10982 5.31308
3690 -0.853614 2.15465 11.3106
3691 5.217 1.10862 9.87683
3692 3.14108 1.48918 3.56148
3693 -4.02817 3.20698 3.1462
3694 4.1806 -3.06634 -1.53092
3695 3.80566 -3.17351 0.607686
3696 7.59401 -3.65358 -11.003
3697 1.93769 -1.30605 -2.63816
3698 -3.24793 -0.490396 6.69957
3699 9.97643 -2.79396 2.88375
3700 2.65689 -4.63815 4.89265
3701 -9.37088 7.52367 3.23216
3702 2.75164 -9.49262 0.981499
3703 -5.38844 -2.44876 3.12695
3704 -6.54522 -1.40274 -0.0193029
3705 2.16391 3.34164 -6.00661
3706 -1.19707 -10.4177 -3.60894
3707 -12.4229 -14.9839 -2.39718
3708 -8.32516 11.7649 4.34198
3709 4.66517 -0.0660657 -2.32413
3710 -7.07543 1.57399 5.41941
3711 -1.90197 5.22679 0.97325
3712 4.02933 -6.39658 -3.70897
3713 9.58927 6.26431 -8.11936
3714 1.563 5.854 -1.2059
3715 -3.41537 8.80971 -4.64787
3716 4.09079 -0.106397 -7.33758
3717 -3.32151 -0.9814 10.571
3718 -6.35877 -2.48194 13.876
3719 -5.61514 -6.17488 0.246979
3720 9.88039 1.90516 6.40853
3721 -0.0517496 1.78928 -0.986443
3722 -2.19435 -6.5029 7.05589
3723 1.37453 0.967116 5.35848
3724 -2.63819 -1.63479 -8.73563
3725 -6.48842 -12.3709 -0.914275
3726 -7.67018 -0.469125 2.70356
3727 0.87772 1.4315 -2.02031
3728 3.36285 -7.63621 -1.15632
3729 -2.7919 2.47356 -5.52479
3730 -5.55886 -0.680082 0.639611
3731 -2.27377 3.29824 4.96843
3732 -3.40892 5.02702 -2.86016
3733 -6.83529 -1.16776 -2.23302
3734 7.08282 8.51626 -2.10695
3735 -2.21755 -1.5757 -4.97987
3736 -3.72589 8.6361 -1.13027
3737 -3.82667 -6.85861 -4.21912
3738 -11.8447 0.34088 -7.07356
3739 0.106657 2.96793 -7.71489
3740 0.881995 -2.63627 0.762681
3741 -4.7864 -2.64556 0.475896
3742 -0.869725 -0.8256 6.46438
3743 5.40757 2.60303 2.77587
3744 -3.98363 1.69178 -1.6054
3745 -1.08013 2.55178 12.2668
3746 -2.676 6.17557 2.95923
3747 -2.77397 0.368701 -4.98267
3748 0.747803 7.28888 8.97962
3749 -4.1444 4.92037 -3.16842
3750 0.517999 -1.50312 -2.91099
3751 -1.23936 1.99837 5.66125
3752 5.14553 -0.345249 6.01756
3753 -9.16167 1.48313 1.66614
3754 -0.0320051 4.13872 -4.35373
3755 3.68176 0.54897 -4.37602
3756 -2.98418 3.86356 -6.58804
3757 -0.824572 0.871199 4.22198
3758 1.82396 0.662612 -4.78392
3759 -3.04027 5.46825 9.77606
3760 -9.68926 3.30196 -5.34163
3761 6.49093 -3.87336 -8.68508
3762 -5.46223 10.9113 -5.30223
3763 -2.77136 -7.29659 2.65848
3764 2.33513 2.48352 5.94989
3765 5.59868 -1.85666 -0.668398
3766 9.90883 -8.43399 1.45457
3767 -5.40089 7.1354 2.04566
3768 -3.52511 1.51534 10.6089
3769 0.0411709 -0.202669 -2.59504
3770 -17.7033 -1.05417 -5.42792
3771 4.47347 -6.15692 -0.527737
3772 4.36451 3.87454 6.93939
3773 2.02742 -1.7671 -1.73416
3774 -7.25529 2.31944 6.50581
3775 -3.8236 5.34598 1.34441
3776 -5.10436 7.45958 10.009
3777 -4.19381 2.05473 0.862487
3778 5.22276 -11.6867 -2.16295
3779 5.00613 5.24363 0.214177
3780 -5.30189 -0.0801134 5.03129
3781 -3.89855 2.46167 3.79149
3782 -0.284279 9.5348 -0.376525
3783 -3.39135 7.62495 -5.27652
3784 2.02676 -6.28573 5.07932
3785 5.3254 2.46642 13.7976
3786 1.66639 -6.6762 0.170759
3787 -7.17185 8.34732 2.81511
3788 -4.97009 -7.42855 -4.26426
3789 1.60831 -1.15487 -0.938418
3790 -1.06742 2.41058 -1.27456
3791 -3.45058 -2.23115 -4.35852
3792 1.53103 6.56194 6.37459
3793 -3.02687 0.349021 3.89466
3794 5.96695 -4.22456 9.83233
3795 -3.15958 -7.31183 3.44037
3796 3.76075 2.62799 0.326084
3797 3.61011 7.11557 1.84481
3798 1.16168 3.36098 -5.92408
3799 6.13852 5.09092 2.56575
3800 5.58113 -1.72941 0.192092
3801 4.13616 0.0780028 10.7463
3802 -3.49746 -2.56216 -2.70996
3803 1.28469 -2.75353 9.58846
3804 4.84324 6.29258 0.136461
3805 -5.80126 6.3802 6.33257
3806 3.84357 8.29858 -0.71992
3807 0.982355 3.52182 1.37324
3808 11.38 5.11546 0.761437
3809 3.82884 4.84536 -4.03222
3810 -1.94007 -1.71559 4.44461
3811 -7.22709 -6.2951 -0.709213
3812 0.370111 5.43028 0.997242
3813 9.92674 3.93509 -2.42442
3814 1.89515 -1.35851 3.01017
3815 7.39156 3.52938 -3.11132
3816 -1.86859 2.73637 -0.669535
3817 -0.66408 1.50379 -3.85128
3818 10.0077 2.19765 5.11299
3819 -2.19694 -3.60278 9.69168
3820 2.77729 3.62389 -1.00648
3821 -0.387483 -1.49684 -4.98206
3822 3.07227 -2.79173 -4.44016
3823 -1.76345 -10.9421 -2.16606
3824 -0.499868 -0.219043 -4.66365
3825 3.87959 -1.13506 3.04411
3826 1.16967 -8.86303 3.39653
3827 1.80432 -2.79097 0.212825
3828 -4.35589 3.3957 1.57921
3829 -2.86637 4.79377 9.51097
3830 -0.635437 5.46048 5.46924
3831 3.43083 7.89924 -7.252
3832 1.36014 2.7668 -1.902
3833 -2.38166 3.82234 -2.90845
3834 4.27048 4.31361 -2.43384
3835 -0.420519 -5.53624 1.3022
3836 -7.16649 4.9579 6.05514
3837 -1.25296 -4.26999 3.3094
3838 -4.6063 5.75202 13.4954
3839 3.5494 3.54551 2.2812
3840 -11.9188 -2.10254 4.25438
3841 -1.44994 -3.07817e-04 3.7284
3842 -2.87734 6.19212 0.671118
3843 -3.12817 2.64798 -3.34941
3844 -4.95278 -0.099147 -6.08883
3845 -8.3275 0.957305 5.39049
3846 -14.4148 3.50777 -0.668751
3847 -1.32821 -2.48152 -9.74359
3848 6.93774 2.53654 2.05852
3849 -6.18833 -0.929468 -3.39088
3850 8.88585 0.228178 9.37875
3851 1.82299 -0.597741 -0.317378
3852 -1.51715 -6.25221 9.35781
3853 5.74069 -7.21692 1.92662
3854 -2.61643 -0.467268 -0.630029
3855 -0.830549 0.622652 -7.54211
3856 1.94942 0.640531 -2.56409
3857 -7.94656 -0.90383 3.51172
3858 7.67899 3.39614 -0.769744
3859 -2.5056 1.5461 -0.485418
3860 -6.17419 2.54955 4.65104
3861 -4.7899 -1.33375 -5.0277
3862 -0.119082 5.64003 -3.6203
3863 9.81577 2.83878 3.79705
3864 -3.76917 0.56516 3.00995
3865 9.4758 0.150201 -11.4951
3866 -9.9728 -6.02008 5.94237
3867 7.34695 -6.40628 1.42041
3868 1.65235 5.57991 2.00272
3869 1.04451 -3.30268 -4.52717
3870 -4.0212 0.162703 -3.71996
3871 -0.200887 -3.82828 1.08114
3872 5.64565 4.91554 4.7711
3873 -2.65652 2.10969 -10.5561
3874 -1.54938 7.70581 -1.78222
3875 -2.16234 1.99088 6.91518
3876 9.87714 2.30601 0.562236
3877 5.32539 -1.74897 -7.10571
3878 -7.40698 -6.73032 -1.4955
3879 -8.21759 -4.27297 -0.0449922
3880 3.1511 -7.71068 2.29615
3881 -3.60537 1.85005 0.522144
3882 2.53112 -11.5353 1.60608
3883 0.506499 -3.06032 0.710347
3884 2.70037 -8.36339 -1.60221
3885 2.50748 0.769963 -2.52969
3886 -1.99544 2.20733 8.73002
3887 1.96203 0.375336 3.06702
3888 -7.33584 -6.24398 5.10244
3889 8.09572 2.80881 -9.43678
3890 -4.77953 11.7317 5.15194
3891 8.36889 -4.24244 -2.67594
3892 0.0873039 1.6019 -1.37529
3893 -2.6382 -0.878912 -3.94807
3894 -2.7799 3.90068 2.72223
3895 0.325612 0.72149 -6.41298
3896 -1.27631 -0.412326 -1.58064
3897 0.823088 -4.66779 2.97041
3898 -2.65243 -2.05157 -8.5968
3899 1.35196 0.0446307 5.45154
3900 6.94972 -4.98569 5.11039
3901 0.605855 -2.01833 2.18276
3902 -6.33879 0.872872 3.86583
3903 3.67557 -8.39978 6.17567
3904 1.20252 -1.13322 -0.603129
3905 -5.49203 -3.08585 0.577376
3906 2.90679 -2.8492 2.8227
3907 5.02573 4.23879 0.338698
3908 1.04125 7.09024 2.9917
3909 1.91086 0.299082 -0.671152
3910 2.26024 -0.261123 -0.129
3911 5.61686 -0.632189 0.132474
3912 6.6366 -5.7963 -5.49636
3913 0.20947 -1.44523 2.85177
3914 -1.10617 1.98463 2.31992
3915 -5.8999 -1.63141 -1.4696
3916 -8.00759 -13.2027 -11.1353
3917 1.71229 -6.70879 8.48684
3918 0.841864 0.098308 -6.44604
3919 -5.50148 -8.806 -2.37075
3920 -1.47731 -4.50597 -4.91766
3921 3.27746 1.39068 4.55959
3922 9.08231 0.639119 4.16077
3923 9.03816 -7.42785 -0.843302
3924 2.87546 8.10172 1.89486
3925 2.18724 8.57317 4.83805
3926 0.784231 2.55014 0.45552
3927 2.42023 2.93825 9.16085
3928 -4.07301 -6.869 0.74494
3929 5.50058 9.37216 -4.24149
3930 0.964964 7.56454 3.84096
3931 -7.01407 -0.419705 -7.35363
3932 -3.43524 -5.65508 -1.34122
3933 -2.99784 2.40827 -3.80854
3934 1.55022 -0.483101 4.02178
3935 -1.42457 2.24335 -2.09582
3936 0.831166 -3.37798 -1.27839
3937 -9.03149 -1.19048 -0.639645
3938 -4.72077 -1.3614 4.38181
3939 -3.9944 2.72924 -0.92779
3940 1.25495 -2.07104 1.03663
3941 -1.75633 -4.04954 5.8498
3942 -9.2434 5.72091 -3.94764
3943 4.2202 -4.23604 -3.43137
3944 7.26254 2.77397 -0.248925
3945 0.98773 -6.91102 5.34561
3946 1.53909 3.23495 0.413006
3947 5.75369 5.16888 0.364124
3948 -0.738818 -0.807052 -0.953945
3949 8.03874 -2.36326 -2.44973
3950 5.76335 -5.89056 9.06092
3951 -4.44564 2.93493 -9.75467
3952 3.32582 -4.60131 10.9352
3953 1.10162 10.7974 -3.06014
3954 -6.62903 4.50064 -2.9407
3955 -1.98511 -7.95851 -0.248177
3956 -1.35402 -3.27021 -4.52649
3957 -0.949508 4.24804 -0.985758
3958 -3.7669 -6.13935 -4.38961
3959 3.89219 -3.72424 -5.87834
3960 -2.24721 -4.05769 7.55126
3961 6.00805 0.807077 3.37639
3962 1.87993 -4.12998 1.14108
3963 -1.68948 5.91944 8.49676
3964 -1.73838 -4.81376 -0.937695
3965 -0.703763 -0.635971 -3.82034
3966 -1.54244 3.99987 3.76334
3967 3.74959 1.40111 -6.61967
3968 -0.0550731 6.67808 -5.19429
3969 0.385911 -4.18212 -0.641922
3970 1.83121 -5.0142 -2.68026
3971 5.91153 -5.54976 5.71092
3972 -1.323 -13.2402 3.21763
3973 -2.24729 -8.16156 4.34409
3974 0.468806 8.04583 2.06986
3975 2.2443 2.27857 4.20371
3976 1.15996 5.13343 2.93529
3977 -2.64054 11.5268 -4.43267
3978 2.7145 -0.850491 4.75048
3979 -2.21756 3.96153 -5.15387
3980 -0.980834 1.80333 7.94121
3981 -7.69233 -0.789345 6.736
3982 1.60803 1.14666 1.16358
3983 2.41623 1.02045 -8.07332
3984 0.364896 1.75709 -5.74029
3985 -0.281626 -3.02859 -9.15919
3986 -0.82492 1.91796 0.0590589
3987 -0.760111 -4.73977 3.3829
3988 -0.0354998 1.48472 3.61046
3989 6.72303 2.52534 -6.52014
3990 2.20621 -5.08718 -4.89414
3991 -1.42763 -6.08567 0.680265
3992 1.32141 -4.02265 10.7157
3993 -4.02502 -1.3131 2.05443
3994 1.28659 -4.3724 7.58882
3995 -3.87836 10.2901 -4.00146
3996 2.49464 2.41376 6.37912
3997 -5.1136 -6.18094 -1.629
3998 1.80598 3.50591 -6.65094
3999 6.53369 3.06571 -5.26625
4000 -11.1296 -4.25574 -4.82119
4001 -0.85038 -4.96661 -7.077
4002 -4.53485 2.40967 -1.47897
4003 -11.2228 0.0306369 2.87027
4004 9.41044 0.641448 -4.77642
4005 4.63186 4.14219 0.91311
4006 -0.510682 3.62907 5.33971
4007 5.37894 12.2684 -3.75371
4008 1.00845 6.52755 -0.958033
4009 6.19581 2.27768 0.0944705
4010 -0.786095 2.54743 2.34499
4011 2.09729 -2.03694 -7.4043
4012 -7.09963 4.53006 -3.20644
4013 6.28371 -4.12029 -1.16735
4014 4.7577 8.06851 7.5968
4015 -0.16075 3.73551 -0.49802
4016 2.47081 2.07642 -0.848852
4017 -2.14403 -1.38648 1.21105
4018 -1.20641 -0.236771 -0.579609
4019 -1.68292 13.6775 -2.90744
4020 1.19792 -4.64159 -0.922507
4021 15.2501 7.87395 5.28525
4022 6.20351 6.90069 8.03135
4023 5.37665 5.25357 5.40343
4024 -3.60458 -2.9408 -2.63894
4025 1.18917 2.76894 3.0263
4026 -3.17557 -1.11873 -1.07545
4027 4.20165 -4.92842 3.76252
4028 1.15378 4.81377 1.98194
4029 -4.8671 1.26269 3.16953
4030 7.02144 3.26872 -0.573815
4031 -4.24937 -0.0892856 -4.08869
4032 0.673219 9.81139 7.55687
4033 1.24356 8.34451 -5.06959
4034 -11.5913 10.0678 1.68118
4035 2.53585 -0.105301 -1.60928
4036 -0.416954 3.36365 -0.671437
4037 15.1069 7.76102 5.13393
4038 -0.0329797 -3.50606 0.493137
4039 -0.383198 2.01392 0.160801
4040 -0.812553 2.44883 -6.67877
4041 -3.16207 1.48109 9.16809
4042 -3.24203 4.50464 -2.38547
4043 -1.91829 -3.57562 -3.54763
4044 3.55458 -4.32822 -1.89981
4045 -1.86184 -3.76505 8.13584
4046 -1.14544 2.32901 -0.416813
4047 -6.59502 -8.73691 0.0884596
4048 1.83345 5.92233 -4.96605
4049 1.00587 -7.60274 -10.5342
4050 -8.80315 -5.93724 -1.7631
4051 -5.22202 -7.48866 -6.11908
4052 -4.55739 0.422413 2.39185
4053 4.64775 -6.13966 -1.95073
4054 4.64387 -3.71549 3.66644
4055 -1.71699 -0.00774971 -5.8594
4056 -4.10381 0.339454 -1.46323
4057 -8.80963 0.960096 -0.59224
4058 3.91491 3.19323 2.5502
4059 1.54283 5.81732 -2.5603
4060 -3.44301 4.09863 2.24641
4061 -2.58045 4.12766 -9.53842
4062 6.51543 8.94463 -0.591954
4063 -1.55069 5.4575 0.579367
4064 -1.57865 0.237076 -0.841453
4065 -5.55526 0.0878875 -5.87276
4066 -1.55822 8.35388 -3.65406
4067 -0.906937 -3.75091 -0.511203
4068 2.43421 -7.40399 4.35486
4069 3.88476 3.40375 -6.41323
4070 -0.341674 5.02489 -1.01518
4071 0.970977 0.0880541 -3.27825
4072 -7.82248 0.249614 -0.48623
4073 -1.04368 -0.584287 4.60644
4074 0.232033 9.57433 1.0228
4075 0.866867 5.13537 -3.03831
4076 15.2787 3.71566 5.27629
4077 -0.91233 2.62764 -2.5674
4078 6.33772 2.97127 -5.91197
4079 6.48189 7.24654 9.4242
4080 0.0903018 -0.572539 1.75952
4081 -1.29337 4.78661 6.24966
4082 4.55357 3.02189 7.71589
4083 2.43681 3.71784 -2.16528
4084 -7.42821 -2.77393 4.86002
4085 -1.42247 -1.95011 -2.74161
4086 -0.190735 -2.97769 3.38676
4087 -1.47637 -4.18816 6.82124
4088 -4.64361 7.90113 6.48033
4089 -2.74839 1.17186 -3.28428
4090 -3.88615 2.57827 0.670983
4091 -5.48415 0.346522 -4.21331
4092 3.73339 -2.2484 -5.54632
4093 5.68033 8.0425 -7.76503
4094 7.95 2.75506 -5.72546
4095 -2.67046 -4.53968 6.7346
4096 -0.924988 1.68356 0.23489
4097 -13.2044 2.45592 3.93211
4098 2.938 7.63874 5.00198
4099 -2.70879 -1.12577 -3.12673
4100 2.81269 3.44751 5.4407
4101 -1.50662 1.91604 7.19318
4102 2.29122 -0.161278 -7.92947
4103 4.99523 3.17935 -2.80845
4104 -3.07329 -1.49265 7.32176
4105 -3.65757 5.68418 -1.74996
4106 -8.23932 -5.78742 3.35027
4107 -3.63178 -5.8129 2.71496
4108 5.72177 0.526102 -2.96401
4109 1.91669 -0.90982 -2.06405
4110 5.0825 -2.40977 1.46898
4111 7.97033 5.26587 -13.8127
4112 -7.47502 -0.238224 -0.449658
4113 -10.137 -2.93969 0.677463
4114 5.502 1.22005 2.9548
4115 -0.19577 -12.8977 1.66682
4116 2.69549 0.101553 0.274307
4117 1.0128 -3.49923 -7.84149
4118 0.4675 -0.387689 -8.86357
4119 1.3014 8.85762 -4.65637
4120 -2.82492 -2.17369 1.45773
4121 -2.83226 1.87299 0.585096
4122 5.26293 -9.91058 3.67297
4123 -6.98124 12.9497 -4.50957
4124 7.28557 -3.56158 -4.12328
4125 0.114778 -0.186322 3.33228
4126 11.9315 3.921 1.38148
4127 -7.51498 2.43694 -0.202146
4128 0.976849 -1.22309 0.20474
4129 -0.165417 6.42091 0.119197
4130 -6.66001 7.37531 -8.95148
4131 2.62374 -15.0464 -1.15823
4132 1.30919 6.39339 -9.1272
4133 3.10676 -3.39192 2.7076
4134 -10.2991 -0.332598 0.617092
4135 -4.78376 2.39727 -2.36921
4136 -7.88734 5.77613 -0.0447682
4137 -8.86819 -0.0364072 1.5304
4138 3.54599 -2.4816 -6.28147
4139 -3.51831 4.75762 -10.4978
4140 -6.11993 2.90807 9.79726
4141 6.97191 -1.3279 2.77922
4142 -7.84767 4.77419 4.15696
4143 -7.15962 3.52112 3.37306
4144 -3.01122 1.43062 -3.77767
4145 4.72812 -12.7712 0.468326
4146 2.26636 4.94142 9.73896
4147 4.71813 -2.27021 6.83419
4148 2.3221 -0.783049 -11.6525
4149 -4.66263 7.90976 -1.38441
4150 -2.42865 -0.155071 0.834916
4151 -4.42244 -6.83779 -8.32145
4152 8.01072 0.210891 -0.580042
4153 -1.74447 -3.08065 8.32447
4154 4.18523 -6.32135 3.17692
4155 4.84306 0.662202 2.64938
4156 -6.05098 -12.3686 -6.22455
4157 2.82456 1.87209 1.807
4158 -3.36734 8.20369 -3.64221
4159 -8.14366 1.81103 -0.157822
4160 5.88505 -9.74726 5.89835
4161 7.53045 -8.45265 10.6232
4162 -4.80694 -5.1159 -2.12409
4163 -5.38477 -3.62647 7.53555
4164 -1.72913 10.5411 -0.314641
4165 1.22213 3.59825 8.62387
4166 0.329504 3.1372 2.06982
4167 1.11634 -1.5306 2.95817
4168 -4.22471 1.21861 -3.20256
4169 -2.32574 4.62221 1.03677
4170 3.16551 -2.45062 -0.08332
4171 7.13965 -5.2001 8.20764
4172 -1.52335 1.61116 2.36331
4173 -0.642496 -6.19123 3.12754
4174 6.58688 -4.1746 1.51419
4175 -2.46706 2.88695 5.20682
4176 5.09474 7.2752 -1.51974
4177 7.54371 1.03208 -9.06151
4178 -7.73061 0.430162 -2.27375
4179 1.30456 -0.325613 -1.0961
4180 0.526192 2.67565 -3.31302
4181 -4.74115 -5.97149 0.788586
4182 -2.23508 2.82195 2.4806
4183 -1.4436 3.81395 -3.5436
4184 4.93463 -4.36009 2.23833
4185 0.965437 4.99422 -0.18967
4186 -0.47145 1.52364 -4.13793
4187 1.03766 4.26914 6.23414
4188 4.05853 1.07419 2.63376
4189 2.58241 3.86906 -2.79716
4190 -10.4265 -15.2263 -0.898726
4191 -0.420236 -3.71387 3.618
4192 -1.4523 -1.12305 4.59667
4193 -1.69895 -1.18933 2.93594
4194 -4.58149 8.38065 -5.8722
4195 -0.255929 -0.353604 2.40791
4196 -11.0142 6.11827 0.552523
4197 7.98987 -4.33901 1.10145
4198 -1.51768 0.123201 -2.3087
4199 -0.186153 -1.41758 -4.16805
4200 -9.54836 2.26932 -0.211722
4201 -2.60173 3.3135 4.73364
4202 7.43739 -8.98075 2.72904
4203 -2.77434 -4.30967 1.6018
4204 -3.86796 -3.35315 -5.74783
4205 9.2965 1.8496 2.58474
4206 -2.14211 5.82542 3.30497
4207 -5.01192 -4.362 -4.94696
4208 3.16088 -1.54665 11.423
4209 -1.6958 -1.6255 -4.22977
4210 2.25221 5.16134 1.91312
4211 0.110159 0.174481 6.32908
4212 3.51725 -1.93887 6.47559
4213 -6.6235 -1.74298 -0.289949
4214 5.02346 0.452928 -8.80533
4215 5.43251 -4.69241 4.24655
4216 -1.6271 -5.9589 -2.50905
4217 5.1654 -4.75584 2.5393
4218 -6.84967 6.1888 -5.39105
4219 -9.54704 -4.23586 -6.35113
4220 -5.40548 4.85092 -5.23472
4221 -6.60627 2.02947 -2.8132
4222 -3.30725 1.3257 1.75903
4223 -5.65145 -5.08767 0.369898
4224 -1.35163 -2.47108 -4.13682
4225 8.86897 2.04538 7.18081
4226 -4.13673 -3.29033 -6.55078
4227 -0.282774 -9.34216 1.84049
4228 0.683685 -6.45223 2.19256
4229 -3.35114 0.710843 4.24974
4230 4.05047 1.79073 -6.519
4231 -0.231157 -3.95369 6.5624
4232 -2.42767 0.178684 -2.4101
4233 9.90018 -7.34218 6.99402
4234 2.94332 0.956194 -0.71756
4235 -0.113572 0.531029 7.39922
4236 4.97805 -0.553289 3.62951
4237 -0.460393 -1.94318 -4.5343
4238 5.89692 2.08084 2.21718
4239 1.38913 -3.64073 -4.10269
4240 0.92529 -1.82532 -11.1969
4241 -5.77214 -2.59339 -4.67097
4242 -8.71676 -5.48093 -1.4418
4243 3.31952 -4.6234 4.49678
4244 -3.58314 -3.38345 2.93865
4245 2.00014 -1.50013 -6.37066
4246 11.8432 0.942806 5.40185
4247 -0.864582 -1.00726 -4.20214
4248 -4.96485 -6.39979 -0.252214
4249 0.983733 2.93221 5.98945
4250 -7.60539 11.6884 -8.48522
4251 -5.58537 3.32559 1.35721
4252 -6.19031 -7.28321 -6.01108
4253 -3.34121 -1.80285 3.21459
4254 2.29299 -3.54188 10.0491
4255 -4.80906 0.476707 -2.79333
4256 -8.02588 1.42117 4.08867
4257 -4.89813 -2.43415 0.00371799
4258 -2.93729 -0.545969 -9.60625
4259 2.17153 2.40593 3.75627
4260 5.13377 5.93792 -3.67689
4261 1.49957 7.34347 -7.66423
4262 0.228604 -5.30962 1.63633
4263 2.3467 3.6464 -1.49024
4264 -1.8123 -4.2904 0.93657
4265 -1.29067 -9.08601 7.53697
4266 5.83356 5.6617 -1.96548
4267 -1.45754 1.82761 -10.4012
4268 -8.16496 -4.7961 0.808927
4269 3.4503 6.45612 7.23877
4270 8.72554 8.94773 3.51026
4271 8.81779 -0.794731 3.87222
4272 1.1347 4.50761 1.65694
4273 2.31805 -0.159232 -2.08281
4274 6.77931 -1.23104 -0.770349
4275 0.285216 -1.24919 4.56409
4276 0.405768 -1.12413 -5.97106
4277 -2.10761 -0.841916 -7.97163
4278 -2.40303 10.9139 -6.38296
4279 4.63102 6.3673 3.18912
4280 3.03579 -0.107715 8.79918
4281 1.22679 -2.59013 8.97487
4282 -6.71575 7.23009 5.6644
4283 3.02126 -1.19353 2.77232
4284 -1.67963 0.81416 1.6235
4285 7.09294 4.7904 -3.57788
4286 9.29952 0.169626 -4.80191
4287 1.05449 -6.2981 3.18142
4288 12.1604 -6.16141 -1.71405
4289 9.15592 -2.56041 1.4462
4290 4.33661 9.50037 3.38709
4291 -5.40202 4.58519 1.4607
4292 1.1682 -10.8601 -7.19936
4293 -2.74452 3.52755 -4.86042
4294 -0.722539 -8.23326 -1.02048
4295 -3.20363 -5.00666 -8.58631
4296 -3.9067 -7.7584 -1.6637
4297 -2.48201 -3.84676 -7.54204
4298 -5.97504 1.3773 -1.14764
4299 2.14496 6.13963 -2.38613
4300 -6.15507 -2.74907 0.413946
4301 -1.05205 7.42954 -7.96969
4302 -0.0222249 -1.10918 -6.46095
4303 -3.7404 2.80477 -0.407078
4304 -0.577372 -4.72199 -3.44728
4305 -4.63125 0.706729 -2.39549
4306 -11.0854 -4.85292 -7.57633
4307 -1.22831 -2.99164 5.22369
4308 -1.08097 -3.97408 0.121983
4309 -0.19305 2.17321 3.82877
4310 2.89296 -7.03782 -1.04118
4311 1.49146 -8.90606 -8.16553
4312 -7.64821 -1.92624 2.28034
4313 0.448446 -9.02676 -1.12749
4314 -1.26262 5.31091 -5.12878
4315 -0.0694788 -3.34744 6.17053
4316 -2.48885 1.95924 1.729
4317 -1.86686 3.07418 -9.47366
4318 -5.5554 5.41175 1.79463
4319 -9.9244 4.3995 8.60784
4320 -6.66764 -11.6932 -0.58337
4321 7.69527 9.50276 -2.11058
4322 -3.87231 -0.308359 3.58013
4323 8.29057 -0.672443 -4.48988
4324 2.2833 10.1152 3.19192
4325 1.61666 1.24571 -13.2122
4326 -1.24317 -6.04413 1.14148
4327 -2.0895 -0.379995 3.11875
4328 -0.957305 -8.99098 -7.05978
4329 1.32896 -2.31285 -3.4456
4330 6.6731 3.0255 5.22946
4331 -1.77661 5.41031 -0.0449262
4332 0.615999 -1.20369 -1.52071
4333 6.11987 -0.25975 -4.24791
4334 -10.0712 7.98561 -3.69417
4335 0.961361 4.51838 0.281791
4336 -0.486584 2.46476 7.12213
4337 -4.27562 -7.866 0.653422
4338 1.04475 3.37577 1.25747
4339 5.72168 -0.157447 -7.90656
4340 1.38237 -6.8345 1.9097
4341 4.89726 1.29203 2.18786
4342 -2.42521 -1.79892 -2.87852
4343 -1.866 5.35931 0.587264
4344 0.870367 -2.4753 7.44377
4345 3.08675 6.30219 2.95587
4346 -4.84609 6.17775 4.91294
4347 -3.26815 -11.0012 2.09052
4348 4.76033 1.92826 -6.95882
4349 3.63913 2.06526 0.604008
4350 5.74578 -0.592829 5.02192
4351 9.07965 -1.67816 1.77667
4352 1.45576 -6.89887 -8.65461
4353 -1.68978 -4.81001 13.9561
4354 -4.78474 -9.64304 -1.37741
4355 -3.65174 -4.2225 4.60664
4356 2.07023 -6.83279 6.36976
4357 -6.04637 -1.08604 -3.86161
4358 -3.99762 -4.72311 5.40556
4359 2.08781 -4.52458 -5.88354
4360 -2.08543 -3.88474 -7.35846
4361 -7.33715 4.35414 -3.10132
4362 -2.67213 4.52695 13.7053
4363 -8.39416 3.22118 2.40014
4364 -12.417 -0.627182 2.41745
4365 -3.93086 -1.39819 -1.06165
4366 0.0917702 -4.88865 10.0985
4367 3.91713 -7.57165 8.6649
4368 11.243 -9.72625 -6.41193
4369 0.820016 -0.562024 -3.84977
4370 0.943867 -2.70922 -0.409947
4371 -4.26275 4.71382 1.6385
4372 -6.78139 0.0812919 -6.72903
4373 -1.14291 -2.58926 -6.73401
4374 2.84214 4.43352 3.41049
4375 9.84602 -3.05895 -2.34979
4376 1.78476 -4.85283 4.27142
4377 1.88995 -3.66305 -1.01532
4378 0.274737 3.58157 -9.04761
4379 0.0800274 -4.29601 4.42544
4380 -2.25298 -5.11651 1.33748
4381 4.7459 5.90927 1.60844
4382 3.12551 -4.21262 -1.43095
4383 5.32416 -1.73745 -3.45339
4384 4.1258 1.88454 -4.73703
4385 -2.64741 7.03065 6.35062
4386 4.535 -6.01115 5.79593
4387 -3.66027 -6.41116 -4.46775
4388 4.41273 3.33741 10.4474
4389 2.91141 4.72434 0.473573
4390 -1.49303 1.68083 8.93641
4391 2.02789 -1.80954 -0.792593
4392 7.96896 1.77817 0.559229
4393 -11.3017 10.8582 14.0252
4394 -5.6461 -9.15293 -5.62977
4395 -5.98203 0.333023 3.79702
4396 -7.18796 8.2797 -12.8394
4397 -4.34528 2.42778 -9.86579
4398 6.23398 0.5682 -6.1009
4399 2.82907 -9.77292 8.21924
4400 -0.0269157 -6.11666 -5.56475
4401 3.1079 -2.93279 -3.6254
4402 -5.17473 -3.7094 -0.562648
4403 -0.635654 -11.3587 5.42205
4404 -2.79985 -5.07893 4.843
4405 -0.260825 1.94292 -5.09591
4406 -5.57607 -6.40295 9.99987
4407 1.77309 2.08315 0.266347
4408 -7.42584 4.32363 4.13113
4409 -3.29357 -1.53861 -0.631293
4410 4.93727 2.34829 -0.362009
4411 9.43401 -3.95136 0.233947
4412 3.39903 -0.601578 1.2805
4413 0.0910932 -0.402699 -5.80889
4414 -7.89178 -2.85402 -3.62786
4415 0.010185 1.20295 6.48701
4416 -1.43181 -7.08874 3.30691
4417 1.80374 -5.7023 3.51701
4418 4.61794 -8.02953 -4.76438
4419 -3.44092 4.73505 -1.3134
4420 8.39923 -5.77021 -7.5396
4421 -9.29168 3.77731 -6.65445
4422 -0.840457 4.78761 3.10408
4423 -3.24329 -4.23964 -6.68511
4424 5.69899 0.0903088 7.90805
4425 -2.77575 -1.13006 6.2852
4426 6.58047 0.197321 -3.27556
4427 -1.24523 0.208277 1.05133
4428 -4.25252 -2.73234 -6.8927
4429 -3.82722 3.2964 1.91145
4430 0.981471 -3.65837 4.4785
4431 -2.82533 0.722585 -0.936459
4432 12.2617 -6.65951 -2.6121
4433 0.89163 -3.06583 0.743093
4434 -1.06694 -5.94471 5.83178
4435 3.95263 4.88839 -0.352946
4436 12.9492 2.16708 9.3646
4437 -3.74404 -0.420633 -3.84603
4438 2.03341 -6.46425 -6.87331
4439 -5.04215 -6.58798 -4.00551
4440 -10.1296 9.01614 -0.859955
4441 -1.42241 8.5854 -1.58306
4442 5.6784 7.20528 -4.26112
4443 7.54382 -9.59357 -0.429584
4444 2.93364 1.21669 4.07092
4445 -5.42589 -3.91995 -0.31329
4446 -0.13276 0.0186394 1.34447
4447 -6.05846 -1.61432 3.06553
4448 -0.358994 6.8613 0.469011
4449 -4.86145 -5.81696 -0.60546
4450 -0.439759 3.28412 -3.78929
4451 5.3501 -0.724284 2.31276
4452 6.97249 8.21594 4.90718
4453 -5.4368 10.8943 -7.48303
4454 -2.42325 5.60141 -1.08247
4455 0.938261 2.39813 7.26354
4456 -3.97854 0.0331453 -1.47017
4457 1.02276 -1.91266 3.96778
4458 -1.59636 -10.8075 6.88105
4459 -0.294348 3.85572 -6.35102
4460 8.5289 -4.25624 1.02026
4461 1.72385 -2.00825 15.8013
4462 5.5898 1.56357 -1.98282
4463 1.38802 -7.99439 -2.40804
4464 -3.21471 2.87555 -4.01231
4465 -6.57917 4.51613 2.41316
4466 2.10989 8.79854 8.38469
4467 -3.87017 -4.78223 2.59558
4468 -2.67275 4.32904 2.41301
4469 -3.76457 -8.35596 -1.09088
4470 6.51256 -3.08067 2.13731
4471 -7.05474 -4.89002 3.8206
4472 2.43411 -3.25149 -1.83022
4473 -9.30089 7.80506 4.30307
4474 2.59705 -1.67885 -1.13696
4475 -4.48721 -0.708519 4.93743
4476 7.36769 1.46844 4.52532
4477 -1.96664 2.95747 -5.79543
4478 4.98935 8.52814 -1.10939
4479 -4.10698 1.46854 2.54343
4480 -3.49389 5.11428 -9.17299
4481 -5.4435 -3.67832 5.7243
4482 0.19988 -0.249618 -6.70365
4483 -3.42629 1.20677 2.97393
4484 0.0627384 4.14807 -3.01265
4485 0.842516 7.61481 -1.86265
4486 -8.6618 7.84501 -2.41193
4487 5.64921 -2.30295 -5.76639
4488 4.50626 -1.74666 7.48752
4489 -6.06535 2.20858 -3.62851
4490 1.89248 4.27312 -0.214661
4491 -1.34136 2.72752 3.31578
4492 -2.20367 4.54978 -1.53171
4493 0.403328 3.7548 5.32525
4494 4.70863 -2.85579 -0.388386
4495 4.52154 4.15605 -5.3614
4496 -6.28821 4.51435 -5.83036
4497 1.45487 -5.4619 -0.190077
4498 0.13313 2.25056 -10.0366
4499 -11.7243 2.6281 -0.210931
4500 -7.17213 7.24633 1.8619
4501 5.0135 0.980757 -1.55071
4502 -0.3483 -5.64322 0.434397
4503 3.06445 -4.11758 -1.59981
4504 -2.81544 -1.80309 7.42264
4505 2.63584 -0.673784 -1.22067
4506 -3.49516 0.0220122 -7.36573
4507 5.49606 2.68985 -7.29071
4508 -1.80749 -5.05374 -8.88985
4509 5.73625 -2.13198 -4.67789
4510 -0.448479 5.77193 -3.35463
4511 1.89694 -4.6392 -6.47394
4512 -4.59968 0.695487 -11.1222
4513 1.63251 -2.6464 -0.105408
4514 -1.68841 -3.75223 0.454415
4515 -1.09321 -5.40193 5.38799
4516 2.85675 0.643685 -7.25685
4517 -2.58733 6.70627 -2.32912
4518 2.48526 0.665067 -9.44318
4519 -1.88688 -2.84033 -0.661291
4520 0.26911 12.7919 -12.6764
4521 2.52498 -1.37801 3.04327
4522 -2.39114 -3.21185 -2.4061
4523 -5.34275 -7.50416 -0.128547
4524 6.55595 10.9035 -1.26402
4525 -2.25041 6.59527 3.22969
4526 -0.269441 -5.75088 7.55077
4527 -0.613764 -7.78016 -4.94137
4528 0.176557 -0.282632 2.47247
4529 -0.411009 -1.64631 -3.5975
4530 7.48159 1.07855 -5.25053
4531 -1.69266 -0.0827032 -8.60392
4532 -5.07618 5.07605 0.389586
4533 0.121825 -5.60705 1.2192
4534 -4.10448 -7.35912 -0.535702
4535 -1.09233 1.94643 10.8023
4536 -4.00183 -2.46583 -6.19779
4537 3.30361 -4.61389 1.01606
4538 0.699412 3.45636 2.38636
4539 5.5339 -3.48164 -5.50406
4540 4.37293 5.7032 6.1688
4541 1.73045 1.80979 2.62029
4542 -5.99861 0.341825 4.2986
4543 7.06639 -1.39701 0.594729
4544 -1.94538 7.62522 -0.593085
4545 4.43153 -7.99758 -0.641894
4546 -5.44287 -9.17787 -1.04444
4547 -4.78669 4.15923 9.40449
4548 2.55547 -1.52709 5.61955
4549 14.0243 7.3658 -2.68119
4550 -0.412787 -1.58996 8.62111
4551 -6.45847 5.87232 -3.64313
4552 3.11717 1.4205 -4.60397
4553 8.43663 -1.79242 1.47677
4554 -3.03646 -3.40398 -1.37327
4555 -0.240016 -2.74507 1.78614
4556 1.71186 -1.0212 -3.02371
4557 0.410021 3.16426 7.22869
4558 -10.81 -1.42656 1.00612
4559 2.07915 -3.18937 -4.01172
4560 -4.81705 -8.98524 -8.17645
4561 7.2313 2.15432 -1.42063
4562 -4.43338 -10.5713 2.99247
4563 14.0124 4.07628 -0.105703
4564 4.22532 2.7499 -6.84574
4565 6.12562 -4.29143 1.09404
4566 2.63733 -5.14135 -0.534135
4567 2.17888 -3.81392 1.69406
4568 5.60408 -1.00594 5.69405
4569 1.72587 0.810213 6.14161
4570 -9.09775 -6.76479 2.58544
4571 1.46585 1.8016 1.13711
4572 4.98635 -8.80122 5.96899
4573 7.80454 2.71191 -1.75801
4574 -0.712813 -7.84733 -0.698236
4575 5.23775 4.08096 -1.30197
4576 3.27086 10.9148 -0.785127
4577 7.20146 -6.85772 -4.22325
4578 -6.21294 -5.7011 -1.83843
4579 -3.35121 -12.8837 -0.480936
4580 1.68902 3.06239 1.96032
4581 -5.48917 5.22154 -1.724
4582 -0.324875 5.34966 0.370819
4583 0.634347 3.68163 0.266248
4584 -1.59581 1.85691 3.84709
4585 -4.05814 -5.0134 6.79822
4586 1.00869 -1.80749 -2.959
4587 -1.5585 0.439768 -2.36353
4588 3.87359 3.29768 -2.95724
4589 1.03809 1.68001 2.12116
4590 1.27809 2.25371 3.03548
4591 10.0327 -2.7499 0.930034
4592 -6.62119 5.94769 -8.6972
4593 12.1674 -3.08732 5.38731
4594 2.0256 2.37699 -2.87234
4595 -4.82491 0.0390422 3.60045
4596 14.288 -6.80866 -4.25049
4597 -0.899229 -8.74334 -1.19143
4598 3.59124 1.58017 -3.88467
4599 -9.51994 1.00518 -0.515041
4600 -1.84488 4.1859 3.33081
4601 -0.824121 -2.25831 10.6339
4602 -2.69346 1.86148 -6.50265
4603 -0.415726 5.03208 -4.46876
4604 -3.57445 -1.14933 4.12111
4605 -3.09564 1.81092 -0.378647
4606 -12.8273 -1.92067 -2.11151
4607 6.53533 0.028675 -1.3037
4608 1.45666 -0.700494 -7.7152
4609 0.465122 -0.682847 -3.21287
4610 -5.38341 -5.27815 -2.9458
4611 2.40784 -3.75146 -3.21371
4612 -0.17076 -1.35698 3.52405
4613 3.21645 -2.22555 -11.2547
4614 8.89094 3.42727 -1.11109
4615 1.35216 -2.12619 6.53908
4616 -2.62671 -9.75807 3.11938
4617 0.4864 4.74918 -2.20308
4618 8.8561 -0.169615 0.940467
4619 0.520254 -0.14127 2.82653
4620 -3.3627 -1.37137 1.44863
4621 -8.0064 2.34923 7.09544
4622 -5.17611 9.28458 2.81738
4623 -0.0523692 -2.09991 0.12503
4624 7.87928 -4.95854 -4.50769
4625 6.90101 3.38188 1.13466
4626 2.50075 -9.86754 -0.966107
4627 -2.85822 4.71671 -5.07276
4628 -0.568395 -2.4137 3.55765
4629 -5.77552 0.786844 -8.02714
4630 3.50548 -1.43008 -2.98264
4631 2.8632 2.98929 0.394047
4632 3.23984 5.53621 -4.96464
4633 0.104412 13.974 3.94092
4634 8.32752 6.6052 9.35312
4635 7.80278 0.256081 6.24666
4636 7.13815 6.39911 5.85998
4637 5.36856 -0.590221 4.56752
4638 -3.36447 0.866035 -1.56324
4639 -1.63656 9.02278 5.48017
4640 5.4873 1.54349 -0.442516
4641 -5.13205 7.92359 9.71465
4642 -11.7687 8.67946 -1.36723
4643 4.89127 3.92253 0.190381
4644 -1.34479 8.08299 2.30236
4645 -3.64923 2.55494 -2.5954
4646 -7.81405 -8.06955 -0.11273
4647 12.7047 3.3619 -5.72858
4648 -4.71786 2.78614 -2.51828
4649 5.47273 -13.8445 2.81668
4650 -4.53833 6.32487 -0.43677
4651 0.0974631 13.8843 -4.0005
4652 8.12748 -2.92763 -5.44049
4653 -6.24103 -1.38605 -5.03858
4654 -4.93813 -2.79101 6.84266
4655 -4.53582 0.382831 -1.41953
4656 6.55804 4.26487 2.64456
4657 10.4808 7.14203 1.86869
4658 -2.309 -3.45961 0.710856
4659 1.29804 9.43414 2.49613
4660 -3.29815 -1.13742 1.49859
4661 -2.04053 4.75097 3.69505
4662 2.74005 -1.99713 -5.37499
4663 -0.923013 4.23356 1.76979
4664 -3.1349 -4.00306 -1.5254
4665 -3.44494 -3.89574 -0.94674
4666 -2.42324 -4.21567 -3.26086
4667 10.1024 6.6812 -1.12306
4668 1.58932 1.82382 -4.69434
4669 6.91283 -7.31187 -8.37389
4670 0.147348 0.168058 -5.83803
4671 2.38499 4.59173 8.31662
4672 0.810466 -0.50931 -4.41679
4673 -2.38338 0.84195 -0.0880866
4674 2.65793 4.34592 -1.50684
4675 -5.85418 0.0902673 8.59718
4676 6.47158 -0.38115 -5.28952
4677 -2.58635 5.41454 -0.348737
4678 5.28358 0.97521 -9.02165
4679 -6.69702 -1.8083 -3.53612
4680 2.31807 10.7512 -1.81339
4681 -7.58837 -1.94719 0.717648
4682 2.67419 -0.0761778 4.76065
4683 -10.921 -6.07509 10.8577
4684 -3.71991 -2.68926 -8.28666
4685 -8.08425 1.66458 -3.65099
4686 5.08905 -3.6561 0.401696
4687 2.79316 2.50693 -1.69003
4688 4.73875 -0.794783 -4.12812
4689 -4.43667 -1.5564 0.332602
4690 -11.1103 -1.86414 0.680317
4691 6.02674 -5.68494 -3.20024
4692 2.6145 -2.07275 3.17873
4693 -2.22592 -2.54396 2.62338
4694 -12.0677 0.490357 -1.32752
4695 -4.26547 -1.72979 1.32241
4696 14.3686 -5.25476 -1.27993
4697 -0.602578 0.375818 5.1563
4698 1.13059 -3.14339 -3.79522
4699 9.53361 -1.34014 1.49789
4700 -3.86549 5.87262 -1.67139
4701 -5.33852 -4.90051 4.31748
4702 -11.9067 2.3935 11.2876
4703 7.9449 0.533808 0.712418
4704 1.0144 1.42123 -0.0966195
4705 -0.915197 6.47977 -5.15507
4706 6.96909 -6.7938 -3.70551
4707 -2.9607 2.88263 5.94264
4708 0.295854 3.33491 -0.877963
4709 -0.0335689 4.85095 -6.38515
4710 3.28841 -4.28782 -5.74824
4711 -8.95876 0.981774 1.60687
4712 -4.61019 -0.994005 0.519445
4713 -2.10415 0.708867 -4.98224
4714 -5.07496 5.39399 -1.43568
4715 -4.06332 -3.87757 -15.6901
4716 -6.5645 -3.77424 2.99605
4717 0.338993 1.01785 -13.3719
4718 -2.91486 1.17251 -1.05055
4719 2.47655 -6.35417 0.367979
4720 1.30215 1.52237 2.56418
4721 -3.04297 -0.687042 7.99235
4722 0.756163 -1.99018 4.98021
4723 -1.89483 3.42148 -0.222232
4724 -1.68869 3.06673 -3.79469
4725 -1.60565 8.94742 -0.645192
4726 -1.85672 -1.77719 10.9672
4727 -2.66669 -8.87653 -1.1591
4728 -11.1713 -6.49187 1.49779
4729 3.6453 2.76334 -0.37872
4730 11.6455 3.38155 0.577314
4731 -9.35737 9.45938 1.23156
4732 2.22694 3.71878 -7.51999
4733 5.8404 -4.71084 -5.14294
4734 5.44645 -2.02468 6.46493
4735 -1.42834 3.41715 1.47747
4736 5.12237 -2.69631 0.102718
4737 8.59833 3.68194 0.280073
4738 -1.22202 -6.53856 -14.0472
4739 -3.22433 -2.10983 -7.159
4740 -8.99969 -4.18034 -5.98755
4741 4.91281 2.54787 8.99751
4742 4.69726 11.6233 2.17903
4743 0.0152495 0.303275 -7.54983
4744 -2.99578 11.9362 -5.51671
4745 -4.51413 4.5703 0.231091
4746 7.82283 6.3068 -3.94656
4747 2.20751 -2.66343 -1.6576
4748 7.06772 4.25031 7.35786
4749 6.45663 -2.28349 -6.19998
4750 -6.98754 -2.85538 2.17368
4751 -1.15757 -6.83093 -3.1786
4752 -0.805558 -4.70529 -0.1273
4753 -1.80574 -2.72358 -6.93175
4754 12.006 10.2122 2.06454
4755 3.51499 0.403963 1.27579
4756 -0.142941 4.15404 4.48226
4757 -5.57314 0.340822 -9.01713
4758 -9.49542 -6.26862 8.51478
4759 0.748026 7.14133 6.96225
4760 -3.99823 4.90632 11.5981
4761 6.66984 14.3778 -0.18051
4762 8.60633 4.96486 -1.87025
4763 14.0016 -3.21147 5.7466
4764 -5.18216 -5.17622 7.0976
4765 1.86679 -0.301266 1.87136
4766 2.96943 2.06089 0.573485
4767 -1.93828 2.48986 2.29067
4768 -3.79903 1.21512 -5.90507
4769 -3.84872 4.13573 1.72812
4770 -0.124904 4.15688 -1.61218
4771 8.99491 -9.7858 0.011689
4772 -2.10711 1.32309 -3.75667
4773 -3.23992 7.97545 5.99317
4774 -5.80253 5.48109 -6.97212
4775 -9.68561 -4.01595 2.65563
4776 -4.63807 1.56737 -1.81182
4777 2.0074 -9.60544 -3.43416
4778 1.66591 3.42919 -1.4097
4779 -2.38801 -5.98725 11.3349
4780 4.71307 4.34 -4.71049
4781 3.21219 -6.95717 -4.83277
4782 10.3932 -1.83881 -6.32266
4783 20.0782 -3.59231 -2.76636
4784 0.615056 12.3457 3.83188
4785 -0.604346 -1.91091 -1.46505
4786 -0.556293 -1.91607 -4.57779
4787 -4.565 0.688451 2.54807
4788 -3.97219 -4.12374 -10.9211
4789 -2.25302 -3.74163 1.17192
4790 6.45954 6.93059 1.2291
4791 1.42168 -1.1389 0.714016
4792 3.47481 0.283738 -1.98242
4793 -3.28353 -5.22549 -0.68731
4794 -8.01393 2.11488 4.78701
4795 -0.80653 -2.72446 3.39059
4796 -3.64787 -3.98532 4.95149
4797 -0.760465 -6.12922 7.28294
4798 -4.63452 5.37869 -2.48475
4799 -10.4462 -3.03871 -1.67982
4800 6.55546 11.5129 2.68226
4801 0.9578 2.95126 -3.91849
4802 8.88059 -3.17783 -2.33927
4803 3.17376 -7.97595 -0.277669
4804 -2.62086 -1.86748 0.562403
4805 5.77437 -7.47907 0.314251
4806 -0.898865 2.94677 -4.67738
4807 -2.88972 -4.56173 -4.46082
4808 1.09706 -8.18778 -3.78787
4809 7.55298 1.64137 -2.69383
4810 5.89446 -5.78031 -1.36209
4811 1.00489 -4.17687 1.30792
4812 0.823875 -1.12977 10.9435
4813 5.43977 -5.36959 2.94773
4814 -6.77266 -0.778185 -5.31807
4815 -6.90594 -6.04253 -5.30538
4816 0.569473 -5.42225 0.533804
4817 -1.55497 6.731 1.46242
4818 -3.67297 -1.56361 -6.8431
4819 4.21577 -4.08928 -2.37011
4820 -1.70538 -2.37927 0.694393
4821 9.29165 -3.75525 5.75796
4822 3.50325 -3.21336 0.75261
4823 6.41336 2.90635 1.10388
4824 2.27113 -8.9839 7.69559
4825 -1.47461 -2.36131 -0.959491
4826 6.09867 1.71023 -4.99846
4827 -1.41148 3.00194 -4.47397
4828 4.5985 7.40327 1.96855
4829 8.2211 -3.55831 4.86551
4830 -1.24291 -8.80163 6.48286
4831 3.18494 -3.35218 3.10706
4832 -8.44971 7.02602 4.02883
4833 -0.719973 -2.7435 -9.26721
4834 -5.64477 -4.64766 5.60324
4835 1.99454 4.17249 -1.49008
4836 5.75126 -3.13734 13.3327
4837 -3.80138 3.95672 3.75133
4838 10.4141 -6.06682 2.81417
4839 5.62284 2.80801 0.85905
4840 -2.39605 -6.06948 -7.61836
4841 6.0109 -3.00999 6.73477
4842 -6.74595 5.82115 0.835621
4843 0.804195 -7.04909 -7.19351
4844 8.70175 5.42993 -2.49297
4845 -1.24406 0.233373 -0.618365
4846 3.85745 -3.96456 -1.05245
4847 -4.99314 8.75096 -0.186372
4848 -0.177381 1.44142 1.07355
4849 0.0729779 -0.506462 8.50112
4850 0.0198824 1.87342 -1.6878
4851 -0.617139 0.501263 -2.47694
4852 1.8629 0.534214 -6.70066
4853 -4.83422 1.26795 -0.896212
4854 4.44297 1.11438 5.65123
4855 -4.84178 -1.68834 -9.01534
4856 -6.2355 1.06697 0.22688
4857 2.89014 3.67841 3.83159
4858 6.3468 6.51151 3.11931
4859 2.1874 -5.85988 -2.86395
4860 7.19944 4.63464 3.73388
4861 4.36702 3.40186 -10.6303
4862 -1.29972 2.86258 -1.15678
4863 -9.35926 4.84087 -1.63175
4864 2.26711 -3.9285 8.06157
4865 -6.37614 9.4567 -6.60185
4866 6.54636 -2.93089 -6.88276
4867 0.110787 -0.481068 5.88532
4868 2.54655 3.48509 -2.1718
4869 -3.87989 2.11852 12.2881
4870 -1.81984 -3.08511 -1.70176
4871 -6.66817 4.80066 -5.14473
4872 -4.36518 2.0791 -4.7829
4873 -3.76317 2.6689 0.740431
4874 0.4968 -0.731748 -5.78541
4875 -5.00108 -1.96597 -3.65197
4876 -0.999838 -9.17282 -2.70683
4877 -8.70719 7.83912 -0.345614
4878 4.673 -0.169463 -2.66683
4879 -8.21986 4.55357 -0.452149
4880 11.0451 -0.587802 2.22028
4881 -5.59396 -1.9243 3.54299
4882 0.699863 5.32321 1.36543
4883 -5.23807 -2.23796 -1.87941
4884 4.42168 13.9314 7.16542
4885 -4.43323 4.51452 -3.59556
4886 -13.7648 -1.40654 0.768809
4887 -4.718 -3.19144 3.13251
4888 -5.48555 2.34946 -10.0817
4889 0.384798 -7.34277 -0.853888
4890 2.28995 2.69573 -6.46987
4891 4.57033 10.127 -2.51984
4892 -2.42082 8.09237 -7.24442
4893 3.7132 -2.78756 3.16349
4894 -2.09785 -8.26898 -2.52363
4895 -14.445 4.30063 2.61753
4896 -2.41948 -1.59796 5.69756
4897 2.65432 1.44433 0.683015
4898 3.62125 3.38156 -1.28264
4899 4.18617 -7.39115 -4.35047
4900 -4.79019 -2.93723 -0.359459
4901 -3.07297 3.85214 4.82379
4902 -1.97021 3.50478 3.05853
4903 2.72745 3.695 -6.16607
4904 -0.832429 1.09325 -5.64332
4905 2.09767 -2.75961 -4.4749
4906 9.24728 0.353687 4.2486
4907 -1.25559 7.33089 7.59103
4908 0.870627 3.13415 -0.658169
4909 -6.95388 -6.14696 2.43812
4910 4.33333 -1.85481 -5.93801
4911 1.09499 -10.4639 -4.61594
4912 -9.35973 -3.25105 1.47351
4913 -1.75123 -1.82992 7.45147
4914 5.37676 2.86073 3.96392
4915 2.09617 -1.7022 -6.62432
4916 -7.2006 -1.3989 -4.17946
4917 5.05646 -4.05995 -5.37712
4918 -3.28516 0.734889 -2.65906
4919 4.62901 4.867 2.45359
4920 -1.98794 1.39959 5.27497
4921 -1.60996 1.81471 -3.81873
4922 3.85144 -2.22397 5.07659
4923 3.24795 8.43374 -0.79347
4924 -5.85636 7.72444 1.45298
4925 5.83691 -2.66026 -2.59633
4926 8.30731 1.3736 -5.6166
4927 1.95588 7.20015 -1.71968
4928 -1.96302 0.684323 -4.93838
4929 -0.954816 1.78901 0.60984
4930 4.66011 -3.42585 6.87342
4931 -9.03437 2.76207 1.43035
4932 -8.34677 1.39481 5.80368
4933 -4.2139 3.355 4.07297
4934 -0.376526 -1.22862 -2.22943
4935 -0.415266 5.08123 -4.33955
4936 -9.41525 -9.60206 -3.25736
4937 0.646993 0.352621 -2.53693
4938 2.70078 -7.38984 -0.681657
4939 -7.41735 4.71752 2.44411
4940 -6.02206 -4.5037 3.45429
4941 -2.29536 4.74802 1.20494
4942 2.90659 5.37172 2.37285
4943 4.89811 -0.245023 -5.01967
4944 4.11015 0.450899 -13.2142
4945 1.69803 -3.84753 -2.16741
4946 0.524606 -13.0469 -6.06994
4947 -2.98987 -0.573437 -6.14612
4948 -4.87613 -3.15263 -11.0943
4949 5.15535 7.56823 2.11192
4950 8.17508 2.15463 0.146229
4951 -3.80131 3.2723 2.51864
4952 0.985005 -2.20849 -2.91566
4953 0.212663 7.15403 8.89982
4954 -7.51094 3.83092 1.92227
4955 1.38208 -6.45353 0.180956
4956 -0.72296 0.268579 4.13533
4957 -1.34976 0.193564 0.785459
4958 6.03857 -3.14948 1.2781
4959 0.450346 -4.47326 -9.49698
4960 -3.59442 -3.38134 -0.432887
4961 -0.265306 -5.46639 1.02815
4962 0.321135 2.48102 -2.3577
4963 -2.49869 -2.81662 1.85992
4964 -1.27919 -0.375597 -3.55277
4965 -8.91467 2.84372 5.16888
4966 -6.34947 4.26126 5.75067
4967 4.91606 3.14097 -12.3454
4968 4.69868 -2.16151 -0.740778
4969 3.93791 -7.19256 3.19936
4970 -3.7487 0.408316 -3.05269
4971 4.19131 -0.503506 -2.83976
4972 0.859103 4.9922 1.07202
4973 1.93262 -1.76939 -0.302611
4974 2.95674 7.79054 -4.56344
4975 3.14017 -5.66521 -6.98559
4976 -0.468478 -3.26761 5.1513
4977 -0.492391 -3.66258 1.23382
4978 -2.18683 8.21365 6.70924
4979 -1.16848 -2.78812 4.72051
4980 5.00033 1.60683 -7.0398
4981 -0.824969 9.30155 -1.97941
4982 0.660005 -8.18134 5.54724
4983 -8.0694 -4.02676 5.97387
4984 3.42059 2.40755 7.5222
4985 0.376853 -10.4165 -7.69204
4986 -2.67438 -4.63117 -1.8791
4987 -4.07298 -4.94383 0.989771
4988 -0.902708 -6.8455 0.396405
4989 -3.2529 -5.58903 -0.335741
4990 9.08033 11.4269 -3.2496
4991 -5.43395 4.59166 1.90456
4992 5.20735 -0.987185 2.43427
4993 3.44868 -6.19456 -4.3498
4994 -7.77379 -7.90446 3.7214
4995 -0.0243496 -0.268303 -4.41286
4996 5.61847 2.48624 4.87837
4997 0.736412 1.74344 -4.2638
4998 -5.86982 3.72777 -1.08553
4999 -2.47588 -2.79635 1.19561
5000 -0.776187 -1.20803 8.53276
5001 -1.9299 5.05489 -6.53138
5002 7.52664 -3.15924 0.394567
5003 -0.958375 -4.5945 0.237408
5004 -9.46163 3.99431 -0.984915
5005 -1.26188 2.05654 -1.26047
5006 -2.82453 1.50764 -1.54636
5007 -0.453518 -1.74462 6.2364
5008 -3.99342 4.85249 4.2968
5009 2.44703 -5.32085 -5.81228
5010 -4.91519 -6.41426 -3.09232
5011 -6.73308 3.16985 6.70462
5012 10.9937 3.07724 -0.557288
5013 -1.10439 -5.58426 10.8656
5014 3.39594 0.682023 7.94534
5015 -5.81403 5.80187 3.0956
5016 -2.04012 -0.969394 -7.25196
5017 6.60842 -10.193 -0.873518
5018 0.687333 5.36161 -7.98741
5019 2.67408 3.78343 -0.424092
5020 -5.612 -0.039232 -3.06516
5021 5.53191 -2.81478 -0.366778
5022 2.07963 -2.16164 -2.23038
5023 7.63206 -3.13675 4.60461
5024 -1.37418 -6.70332 8.13372
5025 -1.76357 5.65095 6.08062
5026 -0.936851 -8.78987 3.66712
5027 -6.48512 -5.50476 6.24446
5028 4.62392 -5.30734 -3.42148
5029 0.373963 -2.38743 -2.34331
5030 1.28977 -1.84852 -2.65965
5031 2.64745 -5.76979 -4.79341
5032 -7.66313 -3.57796 -0.90172
5033 -9.85029 -0.466928 -6.99437
5034 -2.2601 -6.79984 -4.81043
5035 2.05493 7.40704 4.37146
5036 1.61758 -2.24808 -3.03828
5037 3.70012 0.55589 -0.398052
5038 -0.407984 -13.8783 0.301513
5039 5.15469 -4.05003 -1.19697
5040 6.00996 1.94944 9.51394
5041 0.604521 4.83795 2.27944
5042 4.17719 0.0647789 10.3452
5043 4.78896 2.0846 1.55172
5044 0.78074 1.43139 -4.4678
5045 0.607991 -1.67479 -0.801257
5046 -3.64875 10.923 -3.75842
5047 -3.26398 -1.34985 -7.26735
5048 -0.3349 -0.850445 1.31693
5049 2.92328 6.99522 -1.0659
5050 -8.0278 -1.26658 -0.394764
5051 1.44485 5.79119 2.80495
5052 -2.81282 1.33308 -9.70092
5053 8.52146 -8.31146 -2.01029
5054 -1.36153 -1.96689 4.10674
5055 -5.52257 3.49802 6.54512
5056 -2.6323 0.793393 6.91015
5057 -0.920991 0.914799 -0.837673
5058 11.2795 -2.54471 5.61666
5059 -2.22427 3.17564 4.98609
5060 2.07353 4.45122 -0.762898
5061 0.215079 3.40245 -0.709657
5062 2.57651 2.08087 -7.65212
5063 8.59886 -2.61305 -1.77275
5064 -8.05556 -4.13335 -5.91244
5065 -1.44492 5.93783 -1.20191
5066 4.70244 5.65686 5.20286
5067 -1.34458 2.39249 -3.78516
5068 1.26326 -4.2352 0.326592
5069 -3.52547 -4.50591 -4.38902
5070 -1.5411 1.38911 2.06511
5071 3.63324 4.72758 3.47343
5072 -0.494423 -13.2633 -3.17189
5073 3.1581 -7.2021 11.3337
5074 8.11905 3.7636 -1.61697
5075 5.12524 2.59089 4.99819
5076 -4.0851 0.154642 -2.40399
5077 -0.0794771 -0.565254 -11.8506
5078 3.07243 -4.2274 -8.44265
5079 -7.08217 -1.80819 -5.29722
5080 2.01833 0.328957 0.0657007
5081 -0.911654 0.551833 5.35137
5082 2.28636 9.29347 4.75773
5083 2.73662 -4.72975 5.29113
5084 6.30585 -0.230855 -1.90497
5085 6.66596 0.46809 -4.9708
5086 -3.6048 1.2834 -3.20685
5087 0.255869 0.802974 4.82498
5088 -3.0087 6.10524 2.76383
5089 -6.12892 6.87695 -6.68998
5090 -6.91213 -1.18724 0.0539567
5091 -0.76934 -2.8992 0.411813
5092 -4.79671 -2.03924 1.85702
5093 -1.56383 -3.49528 3.05802
5094 -1.36469 -5.95362 7.93978
5095 -0.626677 -2.81476 -1.60559
5096 3.00744 -9.06933 5.72024
5097 2.68436 -3.05421 2.95958
5098 3.21653 -0.556683 3.7593
5099 -7.60702 -6.50474 -0.981857
5100 -0.870715 9.1748 0.975908
5101 2.51137 -2.66473 -0.823346
5102 0.436299 7.96554 4.35217
5103 1.92138 0.64998 2.75594
5104 2.47048 4.10283 -1.87253
5105 -1.55971 -0.368249 8.03296
5106 11.8473 -1.48655 8.37009
5107 -0.545022 -4.7974 -2.84364
5108 -6.01313 1.08218 -5.32828
5109 3.87579 2.04874 -2.06548
5110 -2.87132 1.67964 0.863394
5111 2.80528 0.420156 -4.15601
5112 6.60308 6.76825 -7.31735
5113 1.34975 -0.0392701 1.65494
5114 5.00747 -4.67709 -8.92928
5115 -0.306066 2.20768 2.84266
5116 -4.72437 2.9261 -1.72414
5117 -1.22721 -4.64384 -1.2821
5118 -4.48634 -0.612709 2.98586
5119 2.67044 -0.820854 -2.967
5120 4.79033 -1.07786 7.06757
5121 -1.17281 4.02308 5.53933
5122 3.38781 1.11132 3.42354
5123 -1.47725 -4.48518 -0.125601
5124 -1.67651 0.267412 -2.63862
5125 8.63833 7.5699 2.39588
5126 -2.31336 -4.70658 4.20026
5127 -1.29217 3.47687 -0.579557
5128 -7.22815 6.02157 -1.82587
5129 7.44166 3.3685 5.43262
5130 0.429771 -1.85881 -2.44011
5131 6.23834 6.42949 9.00131
5132 -2.71437 1.80151 4.90734
5133 6.66354 2.38216 0.26828
5134 4.21265 -0.713901 -1.5182
5135 -0.819619 -13.1502 -3.39022
5136 -0.368908 -3.07891 2.47786
5137 1.6424 -3.18098 0.870173
5138 10.4033 -0.540156 4.59454
5139 -7.95384 -0.650863 -1.50305
5140 6.62074 1.6307 4.34454
5141 2.84871 0.538677 2.93317
5142 -2.74517 0.0717692 -5.16275
5143 2.30416 4.37057 -2.76546
5144 15.3896 5.99077 -1.83401
5145 0.233944 -1.29196 1.8787
5146 -0.578429 -8.14525 5.2361
5147 1.78241 4.57865 -3.70027
5148 -3.09006 8.03717 -4.33783
5149 -2.11337 5.78966 4.63377
5150 0.156725 4.26655 4.84925
5151 3.25534 -6.67442 -0.430714
5152 5.60475 0.186667 -4.21253
5153 5.31354 0.852681 -7.81005
5154 6.12627 -3.85978 -8.08315
5155 1.95047 -4.14495 -6.16325
5156 7.67156 -5.22519 -3.668
5157 -7.42341 4.61393 -11.7625
5158 5.90055 -8.90132 2.78856
5159 2.49799 -3.6482 -3.30704
5160 6.48235 6.5731 -2.0965
5161 -4.88744 -5.30702 -7.51324
5162 -2.73031 0.579371 -13.6676
5163 -6.13892 -3.29594 -5.23479
5164 2.37396 14.2797 -5.42254
5165 -1.82262 2.333 -1.50067
5166 -10.9593 1.20794 -1.29572
5167 6.36404 4.38404 -2.16163
5168 -4.90393 3.34681 -0.117617
5169 -11.5413 -11.1785 -1.11594
5170 -2.86763 7.08152 -2.84665
5171 -4.66455 -7.44866 1.4768
5172 4.86902 5.1112 6.02778
5173 4.56525 -7.45754 -6.07273
5174 -7.41934 0.0120051 -0.945036
5175 1.07353 -0.911088 -0.0371514
5176 4.8082 -2.69838 -2.93619
5177 -5.06995 3.16246 -9.11915
5178 0.419207 -6.61106 9.1965
5179 3.04266 4.33703 0.914839
5180 2.19616 -11.1261 -9.09522
5181 -6.17865 -0.734455 0.631253
5182 4.47188 -4.13705 0.783515
5183 -0.408124 -2.41942 0.327546
5184 3.73865 -7.71066 -3.1829
5185 9.109 2.93168 -2.29801
5186 6.17733 -0.811854 6.96701
5187 6.93273 1.84341 -1.06549
5188 -0.465129 0.284714 4.41729
5189 0.978983 -6.48214 -2.02012
5190 3.89499 -9.93507 6.81992
5191 5.59049 2.02012 1.23456
5192 -0.348667 4.15226 -2.6433
5193 1.84084 -4.23807 6.55484
5194 -3.51639 -2.40134 2.91663
5195 2.27355 -0.28143 -4.58418
5196 5.96922 2.74091 0.733216
5197 -0.931623 -3.1845 3.17612
5198 1.14178 -6.91228 7.13119
5199 3.03202 -8.57015 0.0610906
5200 0.103484 -5.71504 3.28114
5201 -5.1026 -0.856646 -5.16093
5202 2.94123 1.20183 -3.65063
5203 10.4856 7.82429 6.21976
5204 3.04883 -7.10274 -3.05127
5205 9.52789 11.7261 0.782113
5206 -1.53644 -2.92463 1.20943
5207 6.25373 -4.49069 5.29661
5208 -1.01456 1.16657 4.66537
5209 8.98327 -3.07647 0.235991
5210 -0.67628 0.928268 4.34792
5211 0.0940488 7.13863 6.54086
5212 1.52175 3.79746 3.7005
5213 10.0369 -6.00599 0.417608
5214 4.33715 -3.95019 -0.064689
5215 0.511208 8.58962 -0.734372
5216 -2.73861 -1.51906 -2.13589
5217 3.92872 7.8024 1.28116
5218 -6.29223 -1.99128 -0.0456908
5219 0.735191 -0.213169 3.72305
5220 5.26293 2.41243 -4.39799
5221 -3.59912 -11.2455 3.02663
5222 1.69454 4.61096 1.59907
5223 -10.1815 -5.72267 -1.91369
5224 3.8099 -6.67385 4.74797
5225 -4.82397 1.23849 3.31934
5226 -6.40695 0.791855 1.51033
5227 -3.75181 -1.87913 -0.550276
5228 -3.84882 -0.651481 -5.36759
5229 0.622306 0.471639 6.58577
5230 -6.74151 3.88138 -2.57921
5231 7.34429 -3.11859 -3.80694
5232 10.1532 6.43238 -8.00179
5233 3.20731 2.62916 -1.14033
5234 -3.67981 -6.77885 5.85334
5235 -2.34724 -3.23841 -0.913022
5236 -5.24572 4.80582 -3.99873
5237 -7.97778 -4.27729 -9.06572
5238 5.96614 -6.48842 5.67371
5239 -2.15862 -5.36973 -1.73046
5240 -2.99952 4.7056 -5.3731
5241 0.384797 -4.15132 7.93599
5242 1.41081 1.71956 1.5789
5243 -4.60301 1.41874 -1.34445
5244 17.5455 -11.2544 2.28058
5245 -0.396888 -8.1472 -6.95641
5246 -1.87345 -5.53698 -0.617764
5247 -1.76392 -2.66931 -2.46236
5248 -1.68546 -4.43816 9.41151
5249 6.65491 6.1437 -0.791488
5250 3.60469 5.78998 2.40278
5251 -0.0428442 2.89967 1.50992
5252 -8.11418 -1.25966 3.6807
5253 4.12218 -3.30175 -1.10895
5254 4.27172 -1.01302 -9.35773
5255 -2.59498 -5.51191 -7.20729
5256 -4.75084 1.74043 4.14735
5257 -8.16109 3.06152 6.88864
5258 -0.213764 1.21775 0.985226
5259 -4.99976 -5.11784 3.00666
5260 -2.25443 -2.58151 1.62562
5261 -1.25843 -4.0882 -6.13025
5262 -1.24328 -0.171378 -1.42684
5263 -0.20371 0.6705 -4.02043
5264 2.50764 -0.30391 -1.93114
5265 -0.57014 -0.568645 -2.82967
5266 0.251487 -2.08905 -14.1073
5267 6.11444 8.46672 -1.36589
5268 -2.14712 -4.12704 3.31873
5269 1.49244 1.65153 2.01664
5270 3.6718 -3.90998 4.56332
5271 3.73987 -3.18457 1.88587
5272 -3.33829 8.86426 11.1085
5273 5.23197 3.37163 -3.56487
5274 -3.65446 -10.8755 3.38652
5275 0.0835682 -1.97923 -4.6494
5276 5.45797 4.64173 -1.05288
5277 0.924496 -5.40831 1.55979
5278 -2.87128 1.97712 -0.909906
5279 -4.76809 -5.02196 -3.09074
5280 -5.48521 2.93812 6.81566
5281 0.415948 4.62063 4.48014
5282 -1.17762 -0.665407 10.6708
5283 -1.14788 5.45675 3.08103
5284 -3.08741 -6.08985 -1.90822
5285 -4.56045 -7.54434 3.46165
5286 2.38977 -1.0407 -0.510944
5287 7.10455 -2.31946 -0.855745
5288 -2.75251 -1.75758 0.743168
5289 -0.382806 -1.01637 -2.91986
5290 -7.84641 -0.684177 -6.73447
5291 -0.489897 -1.26158 -6.16847
5292 -4.42711 -4.1591 2.13496
5293 -5.81987 -2.08002 -3.17996
5294 -5.76338 4.02609 -5.61847
5295 11.9461 -3.83627 6.21622
5296 1.8275 -8.19669 2.79776
5297 1.13713 9.73141 1.25647
5298 -7.24469 -2.55416 8.01196
5299 1.97693 7.62723 3.83299
5300 3.19686 10.5994 0.148858
5301 4.88124 1.54025 -14.2848
5302 2.31225 0.696639 2.95149
5303 -8.01896 0.0565661 -9.21167
5304 -9.04742 5.97701 -2.97363
5305 -4.21103 1.49535 7.74663
5306 6.3855 7.00825 7.4726
5307 2.95793 1.17651 0.828825
5308 -5.23271 2.5831 -0.355291
5309 -6.19447 3.79012 8.37675
5310 -0.740519 4.90925 -1.93189
5311 3.04705 0.77084 1.05114
5312 -6.11858 4.118 5.62132
5313 5.1654 -3.76929 2.99762
5314 4.90134 1.34679 -1.05352
5315 11.9004 1.79621 9.12225
5316 -1.321 6.16791 6.31441
5317 2.21334 -0.126532 -3.58865
5318 -9.80156 2.57598 2.51554
5319 1.82813 -9.65598 -0.118186
5320 -2.45235 -4.178 -7.1453
5321 0.227284 12.0076 -3.50574
5322 2.18503 6.08442 -7.34534
5323 2.74522 -0.159219 4.3199
5324 3.35396 5.36423 -8.92586
5325 5.39452 -7.77375 -5.07374
5326 1.10142 1.76372 9.23582
5327 2.87363 -10.7545 6.06302
5328 2.41892 5.56663 0.0256273
5329 -1.0308 0.936252 -1.74307
5330 -3.32492 0.0608197 -5.44414
5331 -2.56153 -3.72706 10.4266
5332 -1.38443 3.43739 -1.5312
5333 -5.43199 4.36898 4.16459
5334 9.04899 2.8149 3.76435
5335 4.05277 5.56538 -7.26549
5336 4.80093 -0.943937 2.35588
5337 4.09984 -7.33139 0.21537
5338 10.973 4.12532 1.32567
5339 -5.79409 1.94713 2.47117
5340 3.97776 1.66279 -1.48976
5341 2.29597 5.97699 -4.44981
5342 0.268277 0.376215 5.89916
5343 -1.74454 -1.60333 2.16096
5344 -3.00447 5.09458 1.96216
5345 -6.20403 -2.91124 -4.61726
5346 -4.55395 4.34147 0.464443
5347 -3.65103 -2.99786 -7.03048
5348 5.53382 -7.28781 -4.50994
5349 -7.02019 1.18928 1.34573
5350 -1.39272 -4.5109 2.2112
5351 -3.91033 -4.84978 4.15969
5352 1.72424 -0.649267 -0.348918
5353 8.66068 -0.208588 -5.33568
5354 -4.34686 10.0196 -4.01837
5355 -4.29758 5.86713 -2.96023
5356 -0.270338 1.58264 -1.38346
5357 7.44284 2.02584 0.566776
5358 2.06535 7.81884 -9.05966
5359 -6.38706 -4.05092 0.97893
5360 3.99477 -11.3026 1.07893
5361 0.61458 -7.56375 4.02949
5362 -4.05266 -9.32443 -2.91136
5363 -0.308502 5.27388 4.59546
5364 6.98251 1.31574 4.11932
5365 6.62235 6.21345 5.13776
5366 -4.90616 4.00563 -3.15091
5367 0.00698502 -6.62843 -2.72885
5368 -5.84024 -2.23513 -14.2533
5369 0.692558 -1.84997 4.06623
5370 7.7876 7.12264 3.9274
5371 0.90382 -1.11388 -2.9913
5372 -8.6146 1.73486 3.56879
5373 -0.236877 6.59202 9.33678
5374 -9.57129 -8.18824 5.00228
5375 6.94382 -2.60813 2.57023
5376 -4.29003 9.32526 -9.75809
5377 -0.54232 6.36147 -2.37489
5378 4.56778 -0.937454 -2.33512
5379 7.91955 -2.29466 9.21775
5380 -0.468321 4.38696 3.47188
5381 10.8783 2.58617 2.33279
5382 2.43574 -6.23991 6.75887
5383 -2.40457 -3.52025 2.20896
5384 2.84273 0.409496 -0.161674
5385 -2.96796 -6.61475 7.38687
5386 -5.68201 -3.40846 4.0051
5387 -1.6419 -0.531569 7.64293
5388 -0.547882 1.53964 4.51754
5389 -2.05786 -0.601958 2.07842
5390 -2.95293 -0.696622 4.61283
5391 1.44732 -1.31356 3.82832
5392 -0.677439 11.8638 -2.42194
5393 0.492789 -0.155358 1.93142
5394 4.71893 -1.55579 8.17239
5395 0.832496 6.28479 0.699159
5396 2.73195 -6.13356 4.81998
5397 -8.65061 -0.424692 0.104212
5398 6.28802 4.10163 -10.0721
5399 -0.347941 0.485397 -11.2444
5400 2.65061 -4.4055 2.11735
5401 12.0644 -0.841813 0.138704
5402 -3.15972 6.45676 -4.52281
5403 -0.515422 -4.36057 9.59737
5404 -3.55848 0.818808 2.70551
5405 -4.24088 4.67686 2.27294
5406 -3.40295 2.18352 -4.37404
5407 -0.070635 1.67465 3.88008
5408 -2.31543 -0.721204 0.572572
5409 -6.68121 -2.30903 -3.72282
5410 1.83002 -0.87983 2.70487
5411 3.27033 -3.81199 -1.95859
5412 -0.376195 -3.85882 5.43611
5413 -4.446 2.8494 -4.13873
5414 -7.78379 3.87007 -4.55128
5415 1.49043 1.18507 1.80289
5416 -1.35321 -0.446425 -2.33602
5417 -5.36998 -1.56517 -6.37798
5418 -0.656285 3.8705 1.03446
5419 -3.5733 11.9172 3.62482
5420 -1.55785 -0.711957 -6.88216
5421 6.0676 0.635152 -1.7169
5422 2.48908 11.9924 1.85064
5423 8.70945 3.68236 -1.47757
5424 1.1076 3.65506 0.748428
5425 -0.630567 -3.46983 6.19172
5426 9.31738 0.37804 -3.12865
5427 0.908358 1.64014 -6.8578
5428 -7.6213 6.70525 -5.14052
5429 -6.39206 4.11746 -4.14108
5430 5.68918 -6.76005 -2.44668
5431 -2.145 5.1525 -0.403819
5432 -7.86848 0.203619 -0.0176548
5433 5.95444 2.13755 -9.16695
5434 3.33255 0.419053 0.683819
5435 5.05234 6.90472 1.58075
5436 2.86351 4.73855 0.508341
5437 3.68217 1.71576 1.16042
5438 -5.94585 2.76009 3.89405
5439 0.925281 -8.33324 7.73184
5440 -3.38558 -14.6747 11.4651
5441 -4.27995 -1.78685 -2.09845
5442 -2.11581 -0.0660463 1.13895
5443 1.34399 5.17997 8.26897
5444 3.08372 -10.1959 7.8953
5445 0.676457 1.27069 -6.11636
5446 0.473685 1.6318 -3.86876
5447 6.79348 1.27627 2.03056
5448 -2.75987 12.2819 11.2652
5449 3.30613 3.94777 4.25259
5450 2.03706 -0.82814 0.830303
5451 2.30695 2.23188 -1.12795
5452 1.55795 0.896669 5.12732
5453 1.29538 -7.46506 -8.34311
5454 5.78996 5.48506 -2.84644
5455 0.140449 -1.44172 4.27808
5456 -2.73452 -2.51908 1.04353
5457 -7.06675 -8.2434 -2.3211
5458 -2.29618 -4.18269 -4.10354
5459 3.45409 -6.21825 1.62392
5460 -4.07744 4.06582 5.60957
5461 -0.685354 -3.20756 -2.40754
5462 -4.25875 -3.78347 4.88775
5463 -3.66057 -1.83546 0.429358
5464 -6.85464 2.78585 -3.15031
5465 -6.0783 10.6288 1.91236
5466 -0.744974 -0.703988 2.72322
5467 0.611814 8.12154 -7.66352
5468 1.78819 -1.03244 -0.440772
5469 3.08524 7.2968 -3.48391
5470 0.293548 -1.40012 -1.24073
5471 -0.842879 6.84158 3.52183
5472 -2.25107 -5.06753 -2.61316
5473 2.25129 1.63286 -3.66901
5474 1.81394 5.11808 4.97793
5475 -0.188841 -5.87336 -2.39388
5476 0.356141 -3.81889 1.40063
5477 -0.316508 2.75865 7.54956
5478 -6.93169 -0.329598 1.09885
5479 0.394652 -6.05328 -1.29731
5480 -4.04138 -2.79994 0.811378
5481 2.25803 4.37211 2.55916
5482 -2.02685 -7.7663 10.9295
5483 -0.12296 2.42347 -7.46772
5484 -7.40096 -0.960605 -1.00473
5485 0.272022 0.416541 1.86944
5486 -1.35287 -5.13835 -4.0162
5487 5.0145 -3.78978 5.96185
5488 5.68014 0.842668 -8.09424
5489 -1.99161 7.1048 -2.6762
5490 7.68072 4.78926 5.50699
5491 5.76174 1.49858 -4.35121
5492 -4.23021 -2.38784 -4.23005
5493 -1.87113 12.6257 -4.11465
5494 -0.21727 -7.28469 2.6234
5495 -6.74159 -5.2107 -6.93268
5496 -7.03642 -3.43427e-04 4.57733
5497 -15.3754 -5.39127 2.30952
5498 7.01952 8.39205 -1.52382
5499 3.82923 4.98886 -1.88614
5500 1.70634 2.29478 -3.27056
5501 5.06427 2.7151 5.52188
5502 -8.67183 -0.667866 1.30477
5503 -5.46379 0.00524519 -8.05623
5504 -2.199 9.10029 2.75801
5505 3.08393 -0.786637 -3.78402
5506 0.729087 2.57688 -12.995
5507 -2.69025 -2.45232 -4.47895
5508 2.39524 -2.58692 -0.123633
5509 2.47659 -0.0386222 -2.66139
5510 0.683491 -2.26939 -2.99589
5511 7.03626 -1.65497 6.06343
5512 -1.98827 -2.26661 -1.59555
5513 5.38313 -2.85418 0.683112
5514 -2.65198 1.52495 -1.35445
5515 -1.88289 4.36134 2.292
5516 7.79597 6.01804 2.88223
5517 -4.54671 -0.123273 -1.27527
5518 -4.23103 -3.39878 5.02204
5519 7.43164 -3.3635 0.515837
5520 -0.662909 -0.152796 7.35055
5521 -4.28836 1.72599 -4.78637
5522 -5.35087 -5.16427 3.08385
5523 -4.51023 -0.0344841 -3.16929
5524 7.20214 3.4277 0.784034
5525 -3.17284 2.37741 -2.13155
5526 12.757 4.20153 6.71366
5527 -1.77185 3.80018 -2.47932
5528 1.65442 4.26689 7.98757
5529 5.33927 2.72487 -1.17101
5530 4.28221 3.139 10.639
5531 2.21607 10.6918 2.10201
5532 -3.35566 -9.75021 -4.5407
5533 -5.76131 3.4356 2.04441
5534 6.8817 1.00471 -0.0380368
5535 7.49726 -8.25698 -6.55059
5536 4.9379 -1.14501 2.29487
5537 -0.944182 -3.02871 3.60691
5538 0.554923 -1.5503 1.81484
5539 13.4324 0.516202 0.219429
5540 11.3115 4.52187 -8.26284
5541 -1.86299 -9.15167 3.50312
5542 0.769926 2.73759 -2.21865
5543 -1.21956 2.38674 -1.67803
5544 1.0284 -3.24593 4.49465
5545 2.56055 -1.95519 -7.98575
5546 0.189762 2.95603 6.837
5547 1.53593 4.57218 3.89343
5548 -13.6493 -2.84745 6.35103
5549 1.45863 8.25845 -6.41806
5550 0.648502 -6.95971 -2.30857
5551 6.03784 -0.146671 12.8095
5552 -4.9836 -4.00249 -0.169049
5553 13.2113 -11.698 1.85531
5554 1.16627 5.26268 3.8666
5555 6.01689 -13.0065 -0.435154
5556 -5.39158 1.31701 1.30784
5557 -0.459586 0.326673 -0.0986123
5558 -0.318392 5.05441 -4.54268
5559 6.4497 5.02084 2.74589
5560 -0.228912 -6.44974 9.00848
5561 -6.54369 13.774 1.36093
5562 -3.38371 -6.01899 -0.512588
5563 -5.63002 -3.22699 -9.81948
5564 -4.17079 -2.24302 -8.67435
5565 1.60636 7.70686 6.67569
5566 -4.70968 1.50087 1.26745
5567 6.26842 -1.31163 -5.7571
5568 0.364322 -8.03981 8.7868
5569 -0.61529 -1.06219 -3.82727
5570 -0.204999 -4.4686 -1.13475
5571 1.16466 2.17456 -2.494
5572 -9.9812 -1.59834 -11.6695
5573 -2.97404 -4.99428 -2.57044
5574 3.68355 -8.16604 4.61928
5575 -1.91486 4.89544 -0.0357875
5576 -8.95884 6.9717 0.132411
5577 -4.26789 -5.62569 -2.55083
5578 -0.158069 2.26514 2.36458
5579 4.48243 1.95658 11.1623
5580 -3.72422 -7.8049 -7.65745
5581 0.369353 -3.95244 10.7446
5582 -8.0379 -1.88025 2.57063
5583 1.21202 -12.2272 1.43892
5584 -4.11728 4.63705 0.629882
5585 6.99073 3.56994 -0.902296
5586 -7.34518 -7.01727 5.65165
5587 -13.1286 1.89105 0.374561
5588 -0.312642 1.96537 2.87402
5589 1.93053 -7.1243 -3.39466
5590 -5.7857 7.36529 -2.98184
5591 2.26538 -6.52758 6.33246
5592 -0.0199474 -0.697342 -3.1473
5593 9.29768 -5.49445 2.60101
5594 -0.0232077 10.9367 -7.2062
5595 -0.936297 -5.8442 1.47981
5596 -0.302412 -0.504833 3.15264
5597 5.03664 -0.852666 -6.40469
5598 10.3033 3.44305 3.91197
5599 -7.97902 0.443901 -1.59332
5600 4.00294 -4.8408 3.51571
5601 1.21116 -6.38548 -7.94406
5602 2.92256 -5.17143 -3.26549
5603 -1.38696 -0.854499 -2.57362
5604 -2.38873 -1.48091 -1.73272
5605 0.916176 -0.216824 -1.87244
5606 -3.73784 5.94248 -0.264442
5607 -5.33667 4.23547 2.25226
5608 -1.91715 -4.41593 -2.84158
5609 5.58446 4.61338 6.56515
5610 8.57711 -3.56913 -6.30662
5611 5.58618 3.88235 2.80651
5612 0.299835 4.66897 2.61781
5613 -8.0822 -6.50327 -4.54673
5614 -4.49322 1.33835 -2.40459
5615 2.32255 2.39465 3.18008
5616 2.22686 3.81816 7.98858
5617 -2.15801 -0.522045 4.20731
5618 -1.35024 1.93444 0.234798
5619 -4.72657 7.69912 3.75735
5620 6.91111 -3.39933 6.09506
5621 -4.39401 -10.4325 -2.59149
5622 -5.95658 3.47751 0.288485
5623 -11.7045 7.73387 -10.6368
5624 0.453294 -2.59177 -3.92729
5625 -3.52068 1.13491 -0.368059
5626 2.53259 3.33026 1.66778
5627 -7.71609 -6.15339 4.90339
5628 -1.45421 -2.05077 -0.551215
5629 11.3457 -2.09541 1.87587
5630 -4.42399 -5.48372 -3.3551
5631 8.86984 0.261723 0.893582
5632 -5.0023 4.14741 9.81311
5633 -8.5338 -2.93479 -5.71603
5634 6.09576 -3.40741 -5.78282
5635 7.62803 -4.29894 -7.15543
5636 9.08645 -1.41897 -4.75552
5637 13.7855 2.53413 2.23481
5638 5.15762 8.28014 0.530477
5639 -1.99414 -7.12594 6.26178
5640 5.93409 -2.4869 2.28654
5641 2.18868 -0.40664 -4.05997
5642 -0.617003 -7.43886 -1.54025
5643 15.1043 10.3161 5.02511
5644 -4.61779 7.19353 -3.69594
5645 -2.50853 6.14003 4.61683
5646 2.15577 -3.48192 1.48944
5647 -1.92554 -7.33594 1.83429
5648 -10.0292 -2.24483 1.15645
5649 5.66351 -1.46921 5.39803
5650 0.521169 2.32489 -0.62796
5651 1.75711 0.941986 0.887956
5652 2.70709 -6.96903 6.286
5653 -1.45428 -0.0372661 -10.6264
5654 -4.68005 -13.4158 3.98248
5655 -0.439653 -3.79365 -0.822119
5656 3.20609 -12.2082 -0.973071
5657 8.25133 9.3974 0.598131
5658 -7.7092 7.35521 0.132215
5659 -1.55634 2.48238 -4.09272
5660 1.13435 8.38783 -0.830147
5661 3.46922 2.70798 4.34604
5662 -0.197548 -7.20689 -1.96446
5663 -4.93609 4.68929 -2.01047
5664 -4.41316 -7.60825 -3.55381
5665 -2.22101 4.22204 -0.388223
5666 2.18878 2.51367 -2.15005
5667 -3.40833 6.76513 3.49804
5668 10.4998 -0.35432 7.10856
5669 0.248162 -10.052 -2.69041
5670 9.10582 -7.58564 1.98113
5671 -2.09339 -1.45612 4.06277
5672 -1.48158 -0.641202 0.631494
5673 8.89239 9.27592 -5.80128
5674 -5.71777 -2.79277 6.26794
5675 5.38419 5.13986 -5.3367
5676 -2.70087 0.0989275 3.80005
5677 -12.3702 -4.86641 -4.84073
5678 -8.57859 -9.66167 3.49695
5679 -0.0769968 3.72482 -5.36412
5680 -2.52142 -2.85131 2.10372
5681 1.79765 -3.86435 -1.25648
5682 -0.760187 -2.78265 -1.76774
5683 -5.41026 -7.40304 5.1335
5684 -7.33921 4.95484 -4.89047
5685 2.7743 6.12176 -3.12128
5686 7.24279 1.11905 -4.82198
5687 8.63455 4.01357 11.6447
5688 -0.785482 -0.861337 -8.4138
5689 7.05453 -0.0317852 10.2065
5690 5.67596 3.57526 4.91723
5691 -6.31854 1.77099 1.0835
5692 8.00159 1.47358 -5.68527
5693 -0.563613 -4.26197 -5.83177
5694 6.74097 -1.41316 4.88997
5695 5.38781 2.87531 7.93473
5696 -8.63482 -13.7676 3.16212
5697 1.08283 1.69873 -2.52056
5698 -3.05282 -7.99306 0.636041
5699 -2.34437 8.35266 4.57422
5700 0.512132 -4.55731 1.49564
5701 -9.90185 -0.634218 7.89763
5702 1.79055 11.9672 0.192457
5703 4.08908 3.66783 -3.33728
5704 -4.75998 -2.9166 2.87171
5705 2.80419 -0.784582 3.92129
5706 6.14597 -0.134037 -2.47043
5707 -2.75118 -2.69517 -1.49654
5708 -0.758237 -0.130568 2.70433
5709 2.10918 -1.65324 4.00727
5710 3.29504 1.0239 -9.42761
5711 -1.71209 -0.181215 -12.8346
5712 1.6784 -0.0389369 3.89298
5713 2.3314 8.54103 8.12895
5714 1.26369 -2.56696 -2.05192
5715 2.31681 -10.4128 -3.31628
5716 12.7073 -7.89324 1.27465
5717 -7.09731 -4.23089 -2.57476
5718 3.22979 -4.13238 -5.72511
5719 5.75117 -2.09083 10.4892
5720 2.83718 2.03698 -10.1072
5721 1.58219 10.5337 -2.15224
5722 6.05842 -3.76944 -6.06823
5723 6.64919 -3.57999 1.81735
5724 0.26602 9.17425 3.13039
5725 -3.06544 -1.84567 5.9681
5726 2.42917 6.33492 -2.60412
5727 -4.78256 2.86434 -2.44594
5728 -3.39208 6.48808 -14.1057
5729 -0.736987 -2.86091 -3.50871
5730 -5.20335 -3.36904 5.0516
5731 -2.36138 0.859408 -1.98598
5732 -8.49975 -5.41578 -1.40125
5733 -2.14321 -5.93305 8.79715
5734 -12.0105 -0.052761 11.3973
5735 -0.0406073 -7.0549 1.57214
5736 2.29117 4.97089 7.81324
5737 -3.02853 -4.60516 -6.54148
5738 -11.3416 -1.20009 -17.0112
5739 -4.30892 0.180137 -1.0785
5740 2.19088 -1.91763 -1.66022
5741 -8.80425 -6.72797 -1.70564
5742 -0.220543 -0.251639 2.262
5743 7.9725 -9.6829 -3.80599
5744 5.91189 0.162578 -9.15492
5745 -4.12047 9.52148 3.40485
5746 -3.32794 -1.4327 1.9406
5747 7.90558 -7.28268 -0.691899
5748 -6.65061 6.20359 -0.0455918
5749 3.56664 -4.35743 4.28845
5750 1.89622 4.32525 -3.19
5751 -0.036478 4.39247 -9.90138
5752 -1.17362 4.86038 1.90209
5753 0.241041 0.850727 4.4275
5754 -4.21972 0.711287 3.01575
5755 1.51808 -3.51434 9.81087
5756 4.83081 -6.43357 5.86072
5757 2.29188 -3.59693 -7.2931
5758 -2.92163 12.104 2.91967
5759 11.0166 -2.18146 2.96786
5760 8.51844 -9.3722 0.214958
5761 -0.972398 -7.20429 2.90898
5762 -4.14488 -1.88283 -8.07302
5763 -2.1158 0.768361 1.11117
5764 2.03538 1.19641 -0.241019
5765 2.04105 5.22708 -4.46498
5766 -6.13266 -0.389589 -5.76015
5767 -3.69682 4.95822 -1.46043
5768 -1.93052 -0.634578 -4.94751
5769 5.6619 -2.53665 1.42433
5770 0.358819 2.39714 -1.05478
5771 5.37683 -5.79406 -4.10588
5772 -7.01117 -0.375244 0.931594
5773 4.25333 -1.06095 -2.65076
5774 -1.52433 -1.20483 3.51788
5775 -5.08963 -1.44202 -0.739546
5776 -0.0811453 3.10251 3.126
5777 9.70111 -1.69935 -0.73614
5778 -6.11804 -1.20438 11.8082
5779 0.00630265 -2.28853 -3.32767
5780 -11.8557 -5.94402 -6.05772
5781 3.88984 -3.7009 -2.86642
5782 3.69699 2.1951 1.09445
5783 3.59094 -8.26382 -7.22386
5784 -1.12731 0.873812 0.700237
5785 2.01289 8.32896 -5.00812
5786 -3.00738 -3.38461 2.95784
5787 3.89197 3.9174 3.17549
5788 -4.09232 -12.2954 8.07948
5789 5.32936 -0.543648 0.0222668
5790 4.81094 8.84496 2.25778
5791 -6.82853 1.25435 2.23449
5792 5.52833 1.29116 -0.382758
5793 -2.80767 -0.0767548 -4.45255
5794 8.85137 3.22926 1.8601
5795 1.43558 -4.3935 -0.68695
5796 -4.77799 -1.05292 3.09879
5797 -6.67169 1.69029 -15.7367
5798 -6.28828 1.10664 -9.75847
5799 -6.5924 5.1006 8.49732
5800 5.62732 -6.79694 -5.23249
5801 -0.0752919 3.34188 -5.9844
5802 -5.88532 5.21194 1.00074
5803 7.0364 1.32989 7.06567
5804 2.10865 -9.85106 -0.351814
5805 4.0461 3.3729 1.58217
5806 -0.271132 -0.823585 1.65784
5807 7.78083 -0.477779 4.5126
5808 -7.35885 -1.39618 4.25298
5809 7.35138 -6.5621 -4.20371
5810 2.38809 -0.297404 5.51251
5811 -5.49378 1.74881 -5.21197
5812 -8.03431 1.19183 1.10477
5813 -1.31663 -0.500028 1.07356
5814 -2.26227 7.0625 -3.99266
5815 -1.98978 2.86016 1.52859
5816 -0.87366 6.19182 -0.255139
5817 2.6611 2.11447 2.10552
5818 6.57382 5.44911 -5.34831
5819 -4.9712 -4.32574 -4.2943
5820 -0.244064 5.68781 -7.58191
5821 -7.87751 -1.49355 -0.503909
5822 0.688504 8.6427 11.7543
5823 1.41809 1.93199 -2.22396
5824 -0.535337 -5.26457 -7.88588
5825 2.89978 9.795 -0.409558
5826 -2.11484 -6.16086 -14.7988
5827 -0.0386906 -0.573729 -3.9982
5828 -4.91786 2.36633 -4.15254
5829 4.60447 -7.3238 -3.70075
5830 -2.43768 -0.319188 5.97992
5831 -2.16322 1.04459 -6.05657
5832 -2.14784 2.67203 1.28946
5833 -6.12428 -2.74922 3.46526
5834 2.01095 -0.0328665 3.24032
5835 -0.457042 -3.86986 -4.29529
5836 3.3307 0.464645 -4.70375
5837 4.34419 6.27499 4.41824
5838 1.60437 -9.53868 -3.45966
5839 -5.7193 1.87567 -4.9138
5840 -1.16008 -1.27319 -4.26508
5841 -7.09798 -12.2461 -2.68256
5842 -6.4757 -8.17711 3.04657
5843 -7.13048 3.49671 7.7188
5844 -0.867461 -0.685558 1.55579
5845 -7.21237 4.09491 7.92839
5846 -2.7932 0.0764763 -5.73725
5847 -2.18646 -1.79307 -5.31039
5848 -3.29976 3.14228 0.117805
5849 -0.376065 2.98149 -2.65233
5850 6.83196 -2.26462 1.45951
5851 2.49789 6.68333 3.11092
5852 5.46517 0.972968 -3.40487
5853 3.70161 2.02809 -2.9658
5854 0.892301 -9.30608 -2.14058
5855 -1.1026 -3.98847 -0.372372
5856 -4.67612 -9.13501 -4.72452
5857 -3.44994 2.69158 8.81736
5858 -6.46623 -0.655042 -8.35334
5859 -4.26982 0.179395 3.54482
5860 -2.96335 -3.44388 2.79042
5861 -7.17186 2.95951 1.79159
5862 4.46118 -3.92957 -4.04796
5863 -2.30355 2.42122 1.10047
5864 4.4282 7.48485 3.38318
5865 -0.411252 -3.61699 3.16814
5866 -3.1053 -8.59981 -3.17334
5867 -4.62783 5.41533 -2.53766
5868 -2.5366 -1.73287 -9.89646
5869 1.18942 1.80658 2.25639
5870 8.11548 0.176131 -6.13952
5871 -0.0656994 -5.31225 4.11157
5872 1.50246 3.08352 0.223571
5873 1.69609 0.892189 -0.541285
5874 -2.14921 -1.0221 3.98047
5875 -3.14734 5.47684 5.5838
5876 12.3193 4.54737 -0.77449
5877 5.84189 -1.34384 -0.857027
5878 -1.99653 -5.72587 -5.14637
5879 -9.64413 -2.59252 -2.39973
5880 2.28562 -1.02955 8.65661
5881 1.27199 9.52767 7.05231
5882 1.17489 1.84592 1.87299
5883 0.0427683 4.09739 6.54539
5884 -1.84959 4.78655 -5.14048
5885 3.20882 -2.4089 -2.24039
5886 1.95617 5.45629 -7.28149
5887 1.47904 -5.78056 6.92361
5888 6.34976 2.67401 -0.398233
5889 -0.268545 -8.26756 2.6851
5890 4.36562 4.73221 1.11457
5891 2.22449 8.06989 -3.97934
5892 2.06136 1.61489 7.53569
5893 -6.99317 3.35095 2.75539
5894 1.50331 -7.63379 5.03683
5895 -2.814 3.77057 5.42443
5896 1.81434 -10.286 1.79127
5897 4.16368 -4.0494 -0.989464
5898 -5.17327 -4.41952 4.18802
5899 6.36823 -11.8223 2.76109
5900 5.324 5.90497 6.46181
5901 6.56463 -2.84373 9.29036
5902 -11.8194 2.35589 7.74015
5903 1.27427 6.54581 5.04116
5904 -2.358 -4.87432 0.485893
5905 5.26903 3.31414 2.52019
5906 5.57264 4.62463 -1.63238
5907 1.43985 -6.17732 2.7283
5908 -4.66678 5.2509 -5.31568
5909 3.58704 0.0550803 -3.04089
5910 -3.99417 -6.93044 5.49397
5911 6.67613 3.06026 6.68654
5912 -6.79605 0.796709 0.471946
5913 -3.55568 -1.789 8.2456
5914 2.35203 -2.39086 1.80153
5915 2.20415 -1.60728 5.79287
5916 1.63006 -2.98484 6.44552
5917 0.287592 -9.42655 -5.2367
5918 -2.70468 -7.94117 3.78023
5919 -3.67407 -5.74697 -0.932643
5920 -14.4605 5.13201 0.150139
5921 -2.279 1.00082 -5.20701
5922 2.40056 1.01408 -6.12375
5923 -0.326368 4.56602 -0.257355
5924 1.46231 -3.61906 2.08288
5925 -3.09224 0.608899 -3.67257
5926 2.8026 2.52173 -0.346709
5927 3.56846 -3.47464 -3.10975
5928 -1.20739 2.98473 -5.08884
5929 -1.08106 2.29987 -3.66673
5930 6.91885 -6.81411 -3.93081
5931 8.806 -3.44011 -4.41205
5932 -1.77089 3.67768 6.25172
5933 -1.87069 4.97392 -1.07241
5934 -0.826887 -0.182005 7.22492
5935 -1.88612 -0.474182 -0.281711
5936 2.4118 0.144952 -0.980887
5937 11.1169 7.15794 -7.72522
5938 5.91676 7.5533 10.7079
5939 0.0922577 4.60456 -0.690754
5940 -4.28745 1.16222 -1.91094
5941 4.32648 1.18217 4.11962
5942 -4.79882 -8.5597 0.959873
5943 0.236556 9.77969 -6.44464
5944 -5.81454 6.38997 0.135714
5945 1.82969 0.464286 -7.86881
5946 6.64417 -1.21592 2.63347
5947 -1.54127 0.665341 3.65418
5948 -3.25034 -0.371282 -1.96014
5949 -1.94514 0.67985 -4.64362
5950 -7.52127 0.600612 7.32766
5951 -9.62479 5.52788 5.83028
5952 2.15476 4.84353 -1.86056
5953 -1.94401 -1.23456 -6.03891
5954 -3.93309 5.36639 -8.25959
5955 1.63877 -1.06269 -0.608705
5956 7.27944 -9.62201 -2.36887
5957 4.04729 4.58817 3.78231
5958 1.37067 3.08239 1.99582
5959 -1.52455 -2.88469 2.7305
5960 0.883731 2.05648 -5.38127
5961 1.96456 -2.11508 -2.12537
5962 4.79183 7.4767 1.12529
5963 -1.93954 -2.16013 1.5425
5964 -2.81555 0.017076 -2.82886
5965 2.23764 -0.662068 -10.9877
5966 -3.14418 -1.50155 -1.95744
5967 0.50543 -4.29619 7.76968
5968 -4.89949 -2.02357 -0.898174
5969 2.24704 -1.37105 -3.57141
5970 -3.37087 -4.74954 -6.06142
5971 -1.30083 -5.27504 -2.10171
5972 -0.862247 -1.39188 4.47922
5973 -0.00528816 0.271418 2.16713
5974 -0.391327 1.81997 7.3968
5975 0.385791 0.607471 -7.96598
5976 4.64479 4.79199 -2.13802
5977 -4.80044 -2.93417 -9.92434
5978 -1.31469 -0.77448 -2.22951
5979 -6.85805 -10.952 5.44382
5980 -6.05087 -1.42615 -2.34777
5981 -3.59758 -2.20171 -4.5167
5982 -5.0976 -9.02105 -2.10347
5983 -3.03158 9.89032 0.536698
5984 -1.50461 -1.57705 1.18873
5985 -2.45058 -3.53485 5.92321
5986 1.64488 -6.17898 -3.79943
5987 -0.0248811 0.556745 3.4145
5988 5.18089 -5.02063 -8.26082
5989 3.0144 3.84031 -5.69597
5990 2.02359 0.794747 -1.12595
5991 -6.51211 -0.0338972 -1.09489
5992 4.42425 -5.20047 -7.50268
5993 -7.28922 3.89239 -0.257606
5994 -2.66546 -3.59914 -7.57577
5995 -3.91736 3.40358 7.23815
5996 5.17198 -10.0293 -4.36782
5997 7.73281 5.39758 6.82256
5998 0.342225 -4.50284 0.805802
5999 -9.19457 7.06728 -8.14965
6000 -5.41934 -1.27386 1.11527
6001 0.757836 0.460941 0.0145549
6002 -3.70138 -1.51567 -2.26021
6003 5.53361 -13.2046 8.15062
6004 -2.48098 0.98195 -3.55168
6005 -1.42841 0.888051 4.88784
6006 -6.78304 -5.44495 -1.08262
6007 2.32402 -4.26667 -6.69968
6008 -4.10704 4.11047 -1.20255
6009 -6.41327 -6.48003 -2.18492
6010 0.42196 -6.19683 0.360849
6011 7.60535 2.55351 -3.18733
6012 -4.04062 -0.388229 2.42372
6013 -3.18697 -7.65848 5.40675
6014 11.1379 10.8509 -0.266999
6015 7.81544 2.16989 2.75069
6016 4.95135 -3.93123 -4.09902
6017 0.50823 -1.00478 4.36117
6018 -9.19684 -0.870667 7.67677
6019 3.49028 -1.60997 -0.855873
6020 -4.24923 -2.83649 -8.56959
6021 7.15443 -6.06928 1.43277
6022 -7.37667 -2.7608 2.89677
6023 2.24766 0.501228 -12.3124
6024 0.044548 -1.63929 7.52974
6025 2.60734 -6.48661 5.95324
6026 -10.8627 -10.9779 3.20228
6027 0.00333075 10.9286 -3.79498
6028 7.55637 -7.06993 4.42876
6029 -9.86202 1.18798 -11.1548
6030 3.09538 -0.997305 -1.21388
6031 -3.21715 -1.46452 -3.31865
6032 2.35499 -1.28556 0.302432
6033 1.87915 -5.96406 -2.07692
6034 1.17746 7.64569 3.51035
6035 -4.87961 0.294576 5.67926
6036 -0.251316 -3.38677 -2.62496
6037 -0.813546 3.12475 -1.78021
6038 -1.66902 -2.11944 5.81753
6039 -3.28767 9.80092 2.0296
6040 4.60521 -0.474805 5.72197
6041 1.77952 0.776075 0.148995
6042 -3.90693 -1.45361 2.23496
6043 -4.05399 2.52541 -0.0920904
6044 0.148019 7.52971 2.62044
6045 -5.07933 -1.65703 2.18407
6046 1.23908 -7.59524 1.40002
6047 -1.29265 2.34 9.96317
6048 9.1621 -1.41128 1.39082
6049 -1.06285 -3.48985 2.9127
6050 4.45533 -12.8474 3.03978
6051 -0.631314 -10.8594 -0.504767
6052 -8.88547 3.94712 -7.65312
6053 -7.64828 2.76503 1.93253
6054 -1.88214 3.70418 -0.438707
6055 -8.91822 0.752222 1.78811
6056 0.403361 -5.3056 1.62516
6057 1.04356 -12.1135 3.10452
6058 3.76565 4.2837 5.24343e-04
6059 -0.552057 -3.20821 -4.68714
6060 -10.2956 -2.08334 -0.213874
6061 -0.0413508 8.07306 -0.862112
6062 1.44421 3.30408 -0.249207
6063 -12.2659 -4.45608 4.12593
6064 -5.81647 -10.1148 -7.73159
6065 8.92482 -0.384796 3.01465
6066 -1.69895 2.22408 1.24182
6067 -4.26177 -5.72924 1.03187
6068 1.39995 6.63971 4.3619
6069 -4.34903 4.22416 0.381927
6070 3.82891 -3.58392 -0.588222
6071 4.73078 -3.04493 -0.598042
6072 -13.2624 3.00895 -7.50321
6073 -0.467012 0.417601 1.75228
6074 9.61244 -2.36832 10.6334
6075 2.46794 -15.2044 2.80924
6076 9.6583 1.48976 1.99904
6077 2.2503 6.0922 -2.4666
6078 0.542619 -5.17503 3.01368
6079 3.21941 -1.37931 6.39846
6080 -2.28555 1.64365 -8.13954
6081 -5.43065 -4.94635 6.37703
6082 -0.198793 2.69407 -5.52545
6083 7.56587 -2.91214 -9.56956
6084 -2.34603 -9.46136 -11.8846
6085 0.751041 2.39627 5.16962
6086 -1.76985 4.81419 -3.69446
6087 -0.666827 6.99688 -1.34854
6088 5.85129 -2.94032 -0.159697
6089 -0.755727 -1.31254 -1.04621
6090 -3.59523 -5.14689 6.37403
6091 3.12435 -4.48558 2.38758
6092 5.82993 6.29224 1.70363
6093 3.59596 -1.268 3.5173
6094 0.897142 5.09411 4.15875
6095 -3.25179 -6.12896 -3.4271
6096 -5.21452 5.90598 0.458937
6097 -4.18696 -3.13247 4.16112
6098 -1.85875 4.8425 1.23512
6099 1.66849 5.55072 2.72826
6100 8.44983 -0.732895 4.04789
6101 -4.19507 -12.3034 -10.7468
6102 -3.14993 3.87221 -11.1122
6103 2.4484 3.98667 2.03818
6104 1.72834 2.25184 -1.28105
6105 5.3867 -7.52665 -0.290796
6106 -1.12793 -3.52336 0.281592
6107 3.47496 -2.18964 -0.672564
6108 -2.04035 3.22727 -8.13842
6109 -2.42515 0.109554 -7.95087
6110 4.72169 4.19776 11.2452
6111 2.94596 -1.99766 4.34616
6112 -4.27628 7.44738 -1.16679
6113 2.25123 8.21642 0.823914
6114 10.7752 -3.18039 -1.02654
6115 -1.35357 -3.52952 1.71085
6116 -8.56414 -0.713535 -3.08424
6117 0.859721 -0.680132 5.07065
6118 -1.85227 6.51503 1.05932
6119 5.48981 -1.30365 2.47673
6120 -4.5209 -2.19343 -2.26514
6121 0.599267 9.00689 1.63217
6122 7.08758 2.4249 1.38914
6123 -1.50305 -1.44335 2.22733
6124 2.72893 4.58629 -0.738527
6125 4.62297 3.95511 2.92836
6126 -2.38719 9.0935 -9.65845
6127 6.40531 -7.69786 -1.37783
6128 2.54035 -0.167388 13.7538
6129 4.23127 -7.26058 -3.34121
6130 7.09932 4.18933 11.7541
6131 3.1733 2.19297 1.45136
6132 -6.03442 -1.25391 1.96726
6133 7.83163 -3.37084 3.3274
6134 2.43758 -1.89621 -5.24561
6135 7.14596 -7.01519 -3.83316
6136 4.11972 8.11788 0.956894
6137 4.34634 1.64857 0.183617
6138 -2.87204 -3.88681 -2.5712
6139 -2.53716 3.5144 3.04271
6140 0.414071 0.0756211 8.09092
6141 -8.69219 2.32396 -4.65035
6142 7.11078 3.12993 -2.07737
6143 2.60106 -1.67292 -4.21838
6144 -1.60137 -0.0926426 4.61289
6145 -0.469775 -1.06004 -8.83283
6146 3.06846 -2.5452 0.407581
6147 -6.48752 -3.81017 2.339
6148 -2.08756 -2.79831 0.062177
6149 -5.61261 2.00474 -4.36152
6150 1.39564 1.4045 -3.19433
6151 4.27996 3.49333 -5.33327
6152 -6.70976 -1.11017 4.44852
6153 -7.34444 -2.53006 -4.5456
6154 -5.42758 -0.438795 2.51333
6155 -6.79525 -1.44389 -6.07684
6156 8.42947 11.6871 4.27605
6157 -2.55425 -0.717472 -5.02031
6158 3.71433 -8.3711 -5.17195
6159 -0.551632 -7.06634 -5.95199
6160 3.67019 -3.69173 4.90318
6161 1.74599 2.17734 6.05382
6162 -8.73654 -1.27466 -4.99678
6163 3.0531 -1.47817 7.53968
6164 1.56044 -0.468028 -0.127298
6165 -7.0501 -13.3232 -8.88354
6166 0.782738 -0.434696 -8.05749
6167 -4.4033 1.12074 -2.25569
6168 -0.084902 -7.90808 4.14161
6169 3.6403 -0.070298 -1.32853
6170 5.65764 1.57046 -2.73105
6171 2.28031 4.50419 3.83543
6172 0.187013 -1.18871 -9.80307
6173 -2.0702 -1.22471 -6.19543
6174 0.18837 -2.45893 -2.31505
6175 -2.91718 0.500437 -0.107453
6176 4.13701 5.60243 -3.81056
6177 -7.57009 -3.30727 1.51055
6178 -0.966066 8.11699 -3.6933
6179 3.11662 1.53248 -2.15382
6180 -3.92162 0.900423 -6.03463
6181 3.11155 -0.925875 -1.68605
6182 -1.40017 -0.889637 -6.78594
6183 -9.07477 8.74836 -0.075368
6184 -1.03542 1.43661 -4.66365
6185 -3.99478 -7.25962 0.141887
6186 -1.89441 7.71013 1.04376
6187 2.59835 9.80873 -1.40951
6188 -1.07021 -2.53412 4.75537
6189 0.366319 -3.6352 3.84871
6190 -6.72827 4.18802 -1.74999
6191 2.25412 -2.13754 -0.772638
6192 -1.99277 -0.88857 -2.75558
6193 -3.63705 3.51986 3.23423
6194 1.75238 5.45765 2.35464
6195 2.2097 2.50238 -0.570164
6196 0.828813 0.543386 4.18967
6197 -1.82359 -7.97433 -1.07781
6198 2.24681 7.3672 -3.2997
6199 -0.530826 4.12044 1.6191
6200 0.848952 -3.28632 -1.45601
6201 -3.84033 5.22604 -2.12729
6202 1.14097 -6.91217 5.01647
6203 0.053832 2.97916 9.73415
6204 2.66083 -4.62357 1.90797
6205 3.76745 2.53616 9.87086
6206 6.89602 3.89878 1.26952
6207 -1.54858 -0.576319 -3.83146
6208 0.651771 2.05631 3.16236
6209 -9.81721 -4.38104 0.954202
6210 7.54247 5.81095 3.51534
6211 5.3423 -1.38259 6.67254
6212 2.67735 -6.88829 -1.29098
6213 8.01562 -1.77937 -6.88777
6214 1.96266 0.129749 2.14814
6215 4.52867 -6.391 9.00013
6216 5.83101 8.47163 10.0062
6217 3.0013 -5.47696 -0.969233
6218 3.59639 -2.86206 1.72998
6219 -3.20795 -5.62847 -4.37757
6220 -5.46529 5.86932 -1.27832
6221 -2.93548 6.18769 1.65569
6222 6.17476 10.3105 0.634113
6223 3.1857 -8.52343 -7.1414
6224 -5.04574 0.462563 3.22558
6225 -10.8758 -17.4477 0.976817
6226 6.73559 -5.24983 -0.644036
6227 -1.89191 -0.0979877 -0.650221
6228 1.66737 4.28434 -2.57851
6229 -10.9024 4.11056 -7.46075
6230 -3.38114 1.33764 -5.07971
6231 -0.0487073 1.19919 6.58546
6232 -5.3935 0.584607 -4.53881
6233 7.15563 11.2886 5.36423
6234 -9.86099 1.66943 -2.36848
6235 7.92898 -2.4978 2.44817
6236 0.456728 -5.64265 3.00641
6237 2.50381 6.44023 -5.84159
6238 0.12249 4.09674 6.43156
6239 1.72927 5.14766 6.0165
6240 -3.53383 -4.6635 4.78979
6241 0.976466 3.72864 0.277582
6242 1.31136 6.13722 1.44803
6243 -4.1222 3.2876 0.853633
6244 7.69169 -2.22651 4.23895
6245 1.17718 -5.68239 9.58821
6246 -5.53769 -0.800598 -1.82072
6247 9.15443 -0.077275 -3.23299
6248 -1.38845 0.447156 -2.54222
6249 -5.02012 -6.40813 4.12268
6250 -3.22902 -3.05149 -3.91797
6251 5.03211 6.02809 -7.15145
6252 -3.65256 2.14489 1.09358
6253 1.26059 -0.695304 -0.121367
6254 1.42425 -4.74387 -7.04405
6255 -2.19847 9.81894 5.60285
6256 -7.51226 4.10039 -11.8984
6257 -4.46499 2.87193 -11.0483
6258 4.0559 11.7096 3.94636
6259 -2.91702 3.51767 7.52669
6260 -2.45458 1.23297 1.41495
6261 0.862088 4.68897 -8.72779
6262 -0.294993 0.309513 -1.64305
6263 -2.85559 8.47719 -1.66632
6264 2.56749 -13.0729 0.0774628
6265 -10.3594 -2.60912 -0.844622
6266 -5.1388 2.00987 -7.08584
6267 2.85774 -9.68849 3.41966
6268 -6.26762 -4.38283 2.17946
6269 -1.26354 -3.16837 3.90242
6270 -2.6734 2.25638 -4.36582
6271 -3.17784 4.93717 0.621182
6272 9.57826 0.193657 5.62111
6273 1.1204 -3.81146 0.195177
6274 -0.0171344 1.21143 -1.52151
6275 -0.054873 -4.5993 -0.467024
6276 -1.68087 -6.47917 -3.26078
6277 -5.27614 -0.825765 0.159005
6278 -2.82373 -2.17229 3.46801
6279 4.4625 -1.17797 2.28122
6280 -7.09762 -3.68109 1.82715
6281 -1.41825 2.085 -4.4837
6282 -0.31018 0.984944 6.45233
6283 3.85463 -1.22202 11.6501
6284 -1.54216 -2.29412 0.123851
6285 -2.27162 1.25673 2.30694
6286 2.45785 5.30172 2.11103
6287 8.44029 -6.73706 -2.53869
6288 1.55838 -7.06622 -9.18985
6289 -4.99423 -0.324456 -7.28224
6290 7.26108 8.93609 11.6138
6291 -6.2204 2.49627 -1.09868
6292 8.40125 6.87357 -6.69459
6293 -3.45363 -6.37118 4.81665
6294 10.389 2.9905 0.629312
6295 -0.527289 7.88643 -1.79011
6296 1.23999 -1.28891 -4.26044
6297 -1.64313 7.49898 -3.88699
6298 -3.0857 -0.936126 -0.537123
6299 -10.8179 1.74055 0.201254
6300 -2.05342 -6.31925 -1.13025
6301 -5.17268 4.87814 -4.08837
6302 4.10801 -5.4153 -3.72378
6303 -4.49235 3.57242 2.24682
6304 1.66147 9.82474 -13.8455
6305 1.16206 2.54817 -1.85386
6306 3.95664 10.9654 4.26054
6307 1.55709 3.77429 4.75831
6308 -3.51506 0.67033 0.795409
6309 -0.020737 -5.35748 5.52858
6310 -0.0356818 -6.09825 1.64118
6311 10.0351 5.90947 1.64672
6312 2.28042 4.76123 -2.87037
6313 -7.06903 4.03002 -4.27856
6314 -1.66204 -1.44219 -0.641965
6315 -9.13074 -4.15488 -6.66632
6316 -4.03394 5.23401 0.51468
6317 0.841258 3.725 6.44697
6318 11.2795 3.60081 6.08937
6319 -6.27774 10.912 -5.50467
6320 -0.372807 -6.87407 -13.5881
6321 7.11515 4.86202 1.4095
6322 6.79633 -8.23486 -3.26739
6323 0.99117 14.2681 -6.61251
6324 -0.858147 -3.05662 2.27728
6325 2.98437 0.76041 -4.84301
6326 3.67933 4.64596 4.57049
6327 -1.33758 1.95953 -0.553842
6328 -5.07276 9.06221 -5.91487
6329 -0.43639 -0.756877 -3.92131
6330 7.09205 -5.98929 -4.89842
6331 3.51533 5.55095 9.11061
6332 -2.41842 4.36537 -6.96821
6333 -0.616946 -2.77212 -5.82835
6334 5.69833 4.5173 2.77443
6335 1.66147 2.27903 1.52062
6336 -1.35294 -4.97985 3.89424
6337 -3.43621 6.18028 3.07685
6338 0.170112 -1.43038 2.0465
6339 -6.933 -12.8284 5.25689
6340 1.46121 -6.52343 5.0383
6341 -8.42079 -9.51732 3.88032
6342 9.31312 -3.81441 3.4713
6343 1.22633 -1.48383 -3.47133
6344 -5.16516 -12.4463 1.55342
6345 0.267367 0.701317 2.72505
6346 -5.32594 0.815513 8.73251
6347 -0.741076 3.07701 -3.2057
6348 3.22363 -5.33666 5.77045
6349 0.112944 -1.00651 1.89784
6350 -1.89674 16.3835 -1.7013
6351 -0.556622 -2.71386 -8.21989
6352 -5.46201 -7.98467 3.79784
6353 0.551686 -1.69227 7.4911
6354 5.33568 -1.65719 -1.68051
6355 -3.13871 4.37529 -4.09051
6356 2.35044 3.03002 -8.88913
6357 -4.3386 2.83304 2.76484
6358 -5.45314 1.17769 -7.46154
6359 7.06054 -1.75931 -9.29495
6360 -11.3979 1.40727 -6.01185
6361 8.49204 1.13824 -1.90338
6362 -0.467417 -2.79107 2.85417
6363 -5.06523 -0.858816 5.79439
6364 4.05088 2.2511 -2.64992
6365 4.06065 1.81638 5.18928
6366 8.66418 2.78799 8.65246
6367 -5.14073 -13.8774 2.84925
6368 -2.92853 -1.3451 -2.72544
6369 7.33692 8.22208 -2.95296
6370 -2.49165 -0.325336 -10.9109
6371 -7.62904 3.46063 -1.32812
6372 7.52094 -2.42385 -0.412477
6373 -8.00783 -3.50281 0.223622
6374 4.67641 -4.96255 0.00687522
6375 8.375 -4.26686 5.42674
6376 -0.134526 0.0609236 -7.9923
6377 -3.74669 -3.87481 -1.38136
6378 -0.411661 -3.24074 3.37718
6379 0.1717 -2.59828 3.68686
6380 3.39705 -1.24169 5.25553
6381 2.88118 -11.3698 -8.92598
6382 0.452063 -5.22317 5.13209
6383 6.15284 0.84011 -1.21938
6384 4.33468 0.0576053 -6.15382
6385 -2.30675 -10.0176 -5.44284
6386 -1.17444 5.937 -11.0526
6387 8.70097 -0.253875 -6.52732
6388 -3.14427 -1.3482 14.791
6389 5.51522 0.957336 -6.00454
6390 -7.61305 10.9259 1.80482
6391 1.33775 -8.32543 -10.6686
6392 -5.95813 7.11626 -1.01556
6393 -1.73069 5.31459 3.60636
6394 1.48702 4.71711 9.67261
6395 0.530421 6.20703 -5.89315
6396 10.5221 -7.3863 0.755838
6397 5.52404 -7.14182 -7.15944
6398 2.41431 2.85363 -1.38754
6399 9.06756 4.22105 1.02595
6400 -8.14746 -1.39752 -6.15704
6401 -10.4374 -3.74808 -6.76466
6402 -3.76242 -1.08153 2.88574
6403 -5.19477 -1.05355 3.81708
6404 0.760692 3.54483 9.14031
6405 1.48773 7.63473 -5.63185
6406 -7.24553 2.05827 -1.1871
6407 -0.595364 1.01626 2.67778
6408 -0.982055 1.74194 -2.22626
6409 -3.27721 -8.93886 3.5346
6410 -3.05801 1.02679 -2.64798
6411 -2.13279 0.690804 -5.28491
6412 -8.29826 1.90932 -1.61988
6413 0.443069 -1.74845 -1.75978
6414 -4.14672 1.43791 -0.600127
6415 0.877953 6.3677 1.03181
6416 4.41046 10.5665 -0.786022
6417 5.46066 -1.98418 2.30776
6418 3.99141 1.24477 -4.47334
6419 -0.914178 -0.633211 -0.0847867
6420 5.76968 -2.08558 3.88081
6421 6.46918 -5.81442 -3.66034
6422 -3.01514 6.26844 3.25467
6423 1.60112 1.40006 -1.26663
6424 3.26755 0.596848 -6.6368
6425 -0.77649 0.483449 -2.15672
6426 -7.30016 -1.75219 4.74884
6427 3.34828 4.19581 3.44358
6428 7.55191 5.43248 8.92463
6429 3.07455 -2.89959 -7.97631
6430 -4.6705 -0.00760494 -3.90984
6431 -0.74665 5.3111 -8.90694
6432 1.05467 -2.96062 1.29359
6433 7.10877 2.14702 -1.65528
6434 -6.52865 -0.481275 -5.74691
6435 -6.00923 0.699369 -3.56786
6436 -1.84199 -12.2768 9.86923
6437 10.7262 5.69291 2.63264
6438 11.0874 -4.73116 -7.97797
6439 3.12174 9.59717 2.40701
6440 -7.73754 5.28036 -2.93538
6441 7.07286 -2.2951 -5.632
6442 -1.40766 2.42306 1.64157
6443 -1.15134 2.19174 -3.10204
6444 -9.45989 -3.69988 3.82655
6445 -2.63146 0.947904 -5.63341
6446 -0.601746 6.92395 7.6341
6447 2.36597 2.45038 8.34847
6448 6.48548 -2.73585 5.10894
6449 1.41865 -1.58925 -10.0227
6450 -3.06991 -0.0301883 5.00618
6451 -0.468518 4.18284 -2.45431
6452 4.94431 -9.22194 8.29085
6453 -7.98561 0.861338 3.25876
6454 -3.98001 -1.35648 1.69844
6455 1.31184 -9.17574 7.13791
6456 1.66449 -1.53829 -1.24209
6457 1.77598 -2.82538 6.20737
6458 6.62719 0.783086 -5.02849
6459 1.00497 6.68544 -2.91332
6460 1.73111 -4.24607 -4.80614
6461 -11.1646 -6.03934 7.03899
6462 -2.01456 2.47746 8.98529
6463 -9.43018 1.20194 -2.02709
6464 -2.10065 -6.67959 4.69571
6465 -1.68255 6.66183 -1.61245
6466 10.5514 -4.0332 0.182724
6467 -0.054661 -1.58403 7.66021
6468 -0.220816 -0.479975 -6.92984
6469 15.3087 -0.98589 -2.75
6470 -0.0637916 -6.24133 -2.78894
6471 0.508676 2.84959 1.8197
6472 9.11737 -3.89738 1.23782
6473 -2.43402 -8.62626 12.2768
6474 6.7876 6.1137 1.19184
6475 -1.81069 3.10476 -0.382428
6476 -2.09932 2.17852 -1.93912
6477 -3.17318 -3.61841 7.90198
6478 -5.37235 -0.833409 2.00278
6479 5.41998 0.922166 -2.98989
6480 -0.713406 1.15115 -3.87854
6481 1.28201 -1.65353 -7.28964
6482 3.66234 -1.47121 -2.75545
6483 -2.87348 -8.38749 -4.69261
6484 -4.80502 3.77446 0.41433
6485 -2.54736 4.06241 -0.872898
6486 2.34631 7.94965 0.849246
6487 -5.92008 2.53886 -3.46404
6488 0.762003 -0.0227529 1.48101
6489 8.20463 1.0968 2.66611
6490 0.705269 -0.947819 5.22257
6491 6.43274 1.28179 -11.369
6492 -8.30954 12.3083 -6.15172
6493 3.44394 7.29166 -3.35789
6494 -1.97874 4.0098 -1.06134
6495 3.46166 -1.66164 -0.196595
6496 -2.73976 -0.709122 6.45206
6497 3.86929 -1.43643 2.04058
6498 3.41885 2.90349 5.74287
6499 -3.27826 -1.63291 -2.51158
6500 -6.37088 -0.654325 -3.05305
6501 1.07991 3.81307 2.9516
6502 -7.4033 3.28397 -5.54775
6503 -2.26201 4.92428 -5.01835
6504 -1.66954 4.83494 0.934096
6505 -1.53019 -4.76242 3.04884
6506 1.46537 -2.6821 -1.01805
6507 1.63102 -3.6494 2.16877
6508 -0.777538 2.83307 -9.00295
6509 0.0471778 -1.67602 -1.26353
6510 -1.66905 -1.60618 0.0386993
6511 -4.18002 4.36318 -2.11593
6512 6.66268 -4.72704 -5.51574
6513 -11.7184 -6.64818 -1.24619
6514 6.73629 1.36286 9.56713
6515 -6.85632 6.68775 0.215882
6516 -0.874055 7.61855 -0.458015
6517 -2.34698 -0.0961076 -0.96903
6518 2.6451 -1.24753 -1.78298
6519 4.5703 -0.426431 -1.59431
6520 4.0304 -2.45997 5.54834
6521 -5.30306 12.795 -0.709464
6522 0.157843 -1.14881 -1.4923
6523 1.72027 -2.34885 -1.02149
6524 -3.65871 -6.39504 0.116019
6525 -5.94704 0.0246889 8.6058
6526 -4.29929 4.17973 5.11065
6527 -1.11894 6.28522 2.69612
6528 3.42617 9.12469 -13.0249
6529 2.59919 4.14612 -4.44668
6530 -7.38747 -1.72367 0.785013
6531 -3.85927 1.83955 10.7985
6532 8.30482 0.772886 2.22701
6533 -5.34122 7.89245 0.192431
6534 5.56493 -8.36175 2.07443
6535 7.77337 -9.92622 -1.1707
6536 10.9173 -3.75057 0.314458
6537 7.8767 -0.912933 -8.18046
6538 7.31429 1.7082 -3.70511
6539 7.37838 1.41553 -6.8496
6540 8.62183 -3.1692 -1.01302
6541 -1.4806 -0.190619 -0.300574
6542 -9.34938 -4.53583 -9.75623
6543 2.64817 -1.74238 5.50754
6544 0.599421 -0.230053 -1.90049
6545 4.32119 0.344741 3.89764
6546 2.74203 4.10119 6.13107
6547 -0.914148 -8.87433 2.61949
6548 3.23124 -0.790111 -0.664502
6549 4.24618 -0.76116 -1.51089
6550 10.189 6.02338 0.584119
6551 6.37348 -4.23861 -0.563482
6552 3.65372 -4.15815 2.36993
6553 -2.83555 1.60564 4.5015
6554 -5.64848 1.71351 -2.49807
6555 -2.25516 3.0073 -1.91322
6556 4.43024 7.89045 5.36013
6557 6.97779 2.4505 -0.619634
6558 -12.4623 -1.56025 10.9609
6559 2.70488 -0.252732 12.5966
6560 -3.80311 -1.59171 4.15111
6561 4.61623 4.2099 1.79296
6562 1.29539 4.44524 -3.11751
6563 0.359644 -2.71001 2.22471
6564 7.62968 5.87904 4.00648
6565 2.18406 12.6308 8.61764
6566 0.3703 7.3846 14.3867
6567 1.6845 7.49007 -0.945918
6568 -4.51771 0.671387 -5.23532
6569 1.90028 1.45645 -0.0138995
6570 -7.77896 -2.43426 -1.56605
6571 -1.11008 5.458 -7.14456
6572 2.27368 -0.857755 -8.11476
6573 0.0781394 -1.57447 2.35513
6574 -3.93006 0.319882 3.59824
6575 -3.71156 -1.54189 -3.54022
6576 4.94246 1.16869 -4.11996
6577 -7.92896 5.05894 -2.25403
6578 -7.03353 -0.177023 2.40284
6579 7.05243 -2.45053 3.09851
6580 -10.3089 -2.35857 2.87683
6581 -1.80289 8.52178 1.6098
6582 3.02951 -4.24509 -1.30103
6583 8.65678 0.242673 1.80115
6584 -7.06097 1.03616 7.86113
6585 -4.28646 4.86128 3.36036
6586 4.65636 12.3437 -3.67798
6587 1.10177 -0.673166 2.58913
6588 0.813913 5.84168 -3.23119
6589 17.4685 -2.19452 -8.35101
6590 -8.0434 3.28486 2.28675
6591 -0.471521 0.406269 -7.66198
6592 1.58242 4.4559 -4.70563
6593 7.94807 2.0426 -4.70366
6594 -2.02151 -0.699879 1.68318
6595 0.621087 4.73721 -0.900744
6596 -0.105109 2.1031 -1.1129
6597 -0.854306 0.0289057 4.22802
6598 -1.24199 -4.35501 5.89151
6599 3.86194 6.13129 -0.943408
6600 -1.26172 -8.65168 -1.00172
6601 -5.90354 1.49489 -4.44409
6602 1.91669 2.96615 5.99323
6603 -6.74747 -1.85862 4.95804
6604 0.622564 2.72591 6.04949
6605 -7.64179 -3.35481 2.99131
6606 3.85983 -1.23916 2.02408
6607 -2.61705 -8.62773 12.3793
6608 -7.12798 -2.19614 -12.4536
6609 -10.271 -4.92523 -2.52215
6610 -7.40403 3.22297 -0.531071
6611 -3.30074 2.21109 -10.7491
6612 -5.13179 3.62621 -0.227149
6613 4.32728 -7.33199 0.0991952
6614 -4.46078 -1.30829 8.98666
6615 1.49632 -0.146768 -8.66647
6616 13.7538 -1.9681 3.52529
6617 -2.01467 0.109695 8.36905
6618 0.133264 7.69359 7.3755
6619 -4.32455 7.23618 3.05065
6620 3.65918 -4.32437 -1.54976
6621 -2.26606 -9.41194 2.71144
6622 2.42515 12.4839 2.17049
6623 -4.24954 -9.23253 -1.65272
6624 -5.13113 -5.41257 -1.3992
6625 -3.45943 6.13522 5.27136
6626 5.4343 3.16329 -4.9881
6627 -8.28056 -5.47378 0.726538
6628 7.09899 -4.48198 -7.39349
6629 1.45692 -1.03576 -0.987035
6630 2.29375 -0.90772 8.44871
6631 5.5489 -0.354572 -0.321405
6632 11.0213 0.712362 0.522023
6633 3.14576 1.8708 -1.64667
6634 3.15569 -2.06241 4.19328
6635 -6.88978 1.03352 -0.594744
6636 13.4218 -2.3428 -0.705405
6637 -6.42737 -7.03461 -2.18277
6638 -0.368205 -2.03979 -4.94933
6639 -1.07491 -4.43364 5.05047
6640 -1.61255 -1.31076 -0.277857
6641 -6.32127 -2.0503 1.50791
6642 -0.610982 -10.5036 9.78554
6643 -9.35108 3.92062 7.76242
6644 -2.70258 8.71571 4.04531
6645 -1.51208 5.98878 -4.07443
6646 -0.571259 -0.0113057 -0.787435
6647 -1.6593 -2.63069 -1.86453
6648 1.67771 -5.36186 10.027
6649 -5.27571 13.2044 -2.08254
6650 -3.63006 3.4562 7.14205
6651 -3.50109 -1.1835 -8.63125
6652 -2.96564 -4.40362 5.43299
6653 0.363626 0.947615 2.85824
6654 8.93471 3.96782 4.7402
6655 -5.01984 -3.83486 -3.34766
6656 -2.71645 2.72579 1.45077
6657 -6.29065 -4.09926 -0.809839
6658 -0.783082 -0.456464 2.685
6659 4.92654 13.1337 4.87519
6660 -10.0678 1.0879 7.7495
6661 -0.801659 0.865376 12.4376
6662 1.77095 -1.98808 5.09366
6663 -2.99324 11.0458 1.10604
6664 4.37324 8.20674 -8.70339
6665 -3.49583 9.83759 -7.64136
6666 -6.17208 -0.859298 6.79883
6667 -4.71482 -5.27338 3.38925
6668 -0.0390537 5.67132 7.90619
6669 1.33802 -3.46134 10.8622
6670 2.23568 2.90805 3.2975
6671 -2.97038 -2.13868 1.77672
6672 3.31254 -8.54033 -0.793886
6673 4.87162 5.49361 -2.95529
6674 6.44715 9.00558 -1.93131
6675 -6.49521 1.62234 4.10979
6676 -7.70598 1.27512 2.25864
6677 -1.21896 0.0448982 -4.02864
6678 6.04994 -1.11105 3.24704
6679 3.27473 -2.29571 -6.63743
6680 -1.64014 -1.38084 2.01493
6681 4.20254 -2.68093 -4.53498
6682 0.208058 1.35285 0.960673
6683 -4.13994 -1.81792 -8.84925
6684 -0.456075 -0.604608 -4.09645
6685 7.44751 3.26438 2.59373
6686 -1.03452 1.97355 -2.09926
6687 4.26212 4.52233 -3.46437
6688 -1.29583 -0.238439 0.900452
6689 1.38309 -4.32113 -5.97373
6690 4.39991 -1.58025 1.5342
6691 5.63388 2.12372 -3.57191
6692 -2.09091 1.7659 4.83494
6693 3.15021 -5.03662 3.78074
6694 1.94184 -7.00427 0.275411
6695 -0.0963878 -4.15069 -2.00602
6696 8.61249 1.58645 -3.14863
6697 0.358606 1.55372 5.71812
6698 -4.635 -5.67522 0.24083
6699 -0.892082 -2.53543 -5.68123
6700 1.45953 -0.503535 -3.60517
6701 -8.64962 3.03828 1.96816
6702 1.4645 -4.74697 -0.191615
6703 -3.23088 -8.21118 -7.28068
6704 3.48063 -7.42919 -7.61394
6705 9.84717 1.23607 0.746996
6706 -7.17657 3.34141 -7.48169
6707 0.856923 3.14997 2.13042
6708 3.99543 1.6677 -6.46309
6709 2.22706 4.55205 -0.65527
6710 6.38414 -4.39156 3.80247
6711 2.07904 0.0149212 3.91006
6712 3.81406 6.16907 -3.28876
6713 -7.2225 -0.427195 -2.09223
6714 1.82562 5.14328 3.10677
6715 4.44477 -1.31096 -4.76354
6716 3.77826 2.80648 -4.92088
6717 -1.4079 8.48361 -4.35413
6718 8.93638 -5.10427 -15.4045
6719 -5.63324 1.95002 -4.09309
6720 -0.432039 -5.96641 -3.39577
6721 5.14627 -4.22933 -4.75325
6722 -10.9924 -0.999576 -0.893824
6723 2.60517 2.02494 5.49402
6724 -6.30038 5.95172 -2.00026
6725 2.707 -3.59414 0.925791
6726 -1.44857 -8.15598 -6.61749
6727 -1.67242 2.93163 3.81599
6728 6.47303 -0.625171 -1.33947
6729 -0.403739 2.80258 3.09443
6730 0.841216 0.0364006 1.15329
6731 0.25229 8.06234 3.21439
6732 -1.61566 -1.39708 -4.00509
6733 -5.0226 3.05303 4.93593
6734 2.48525 -1.13708 2.78617
6735 -6.27081 3.73883 -6.7401
6736 2.13918 0.0377161 -6.31858
6737 7.70133 -1.44733 -3.1181
6738 -7.35459 2.84754 1.35789
6739 -3.44449 2.42728 3.6024
6740 1.44797 3.95171 -1.30717
6741 0.967996 -8.89015 -0.692545
6742 -4.06187 2.71942 -1.42742
6743 -1.00224 1.60837 -4.75513
6744 -3.38884 3.98718 2.51416
6745 -0.181972 -6.65494 3.42921
6746 3.53955 -2.4805 0.374157
6747 -3.58708 3.03592 -1.75129
6748 -2.21444 7.19321 -9.2468
6749 -3.15955 10.4705 -1.63722
6750 -1.63138 -7.68018 5.90778
6751 8.92096 -0.431992 1.91425
6752 -1.21202 -5.50055 -2.48942
6753 -2.31329 -4.29111 1.32879
6754 1.79197 0.362165 0.895
6755 -3.58036 11.4224 8.65244
6756 4.5787 5.18193 5.5961
6757 10.023 -10.2482 -5.2567
6758 1.18357 -7.89159 5.11286
6759 -2.90003 0.628393 3.22349
6760 0.258084 -2.5484 -1.924
6761 5.124 2.62632 4.53719
6762 2.74287 -2.16318 0.631394
6763 4.96058 -3.60838 1.76194
6764 -4.17074 -3.53368 4.06862
6765 0.749408 0.558716 -2.23177
6766 0.986319 4.66983 0.194391
6767 -1.53976 -7.57567 -10.6454
6768 3.61364 0.867084 1.53277
6769 -5.83783 1.69574 -3.91059
6770 2.22443 5.54451 -4.03604
6771 -3.20684 2.58874 -11.2109
6772 -4.99362 2.12286 0.770863
6773 -8.04517 3.25672 3.56248
6774 1.37936 -4.06435 8.38662
6775 -5.99811 1.01245 -0.383508
6776 -0.395286 -2.09247 -4.30317
6777 -4.86273 5.03385 10.3845
6778 -0.533459 -2.93236 0.762498
6779 -0.20665 -3.77825 3.66563
6780 -0.324261 0.0110304 0.109573
6781 -1.6242 4.59044 -0.0872518
6782 2.86049 1.98785 -8.26846
6783 0.462046 -2.39873 6.37888
6784 6.4352 -1.14205 1.52701
6785 -2.22897 -4.64222 0.801338
6786 -0.336827 3.52279 4.17209
6787 -1.14257 0.285373 8.48603
6788 2.45879 -1.34559 -3.13484
6789 5.26629 2.64807 -0.565867
6790 -3.62335 -6.29706 3.14062
6791 -1.86148 7.82245 -5.53901
6792 -0.115011 6.19256 -4.96793
6793 -0.246577 2.46392 -1.05289
6794 -7.62334 -2.38268 -7.37309
6795 7.19049 3.14368 8.66012
6796 -2.91913 7.73554 3.81538
6797 -1.90743 -7.24103 1.85453
6798 -3.65517 2.89911 2.17101
6799 1.71079 -3.575 -3.36
6800 -3.56594 0.488104 6.18747
6801 4.83322 4.67287 -2.43393
6802 4.11564 0.326433 -8.41851
6803 0.601491 1.37613 -2.23705
6804 -1.20579 -2.84998 5.9397
6805 -5.06068 -0.979551 2.38809
6806 5.49732 7.28404 -0.370994
6807 -8.9684 -1.64589 -3.23065
6808 -3.78351 4.16405 -1.21755
6809 2.44056 4.4711 -4.21678
6810 -1.09817 6.6021 1.71263
6811 6.34952 -3.14272 -0.452679
6812 8.36229 -6.76665 0.334152
6813 0.448421 -8.10314 3.30715
6814 4.32071 -4.79293 3.5576
6815 -7.34109 -7.88623 2.53634
6816 8.09634 -0.345438 7.85965
6817 5.35348 3.32504 -5.38866
6818 -4.7369 -2.75889 -3.94851
6819 -1.16071 10.2518 -1.64944
6820 -3.30794 3.0343 7.29132
6821 6.42263 -8.25628 -9.43754
6822 2.50641 -7.99049 1.80565
6823 12.716 7.17306 -2.4459
6824 -1.09988 -2.2102 -1.89528
6825 -1.51615 -8.67485 -2.48758
6826 -1.91198 1.80692 -0.587645
6827 6.04475 4.73016 -0.130785
6828 -2.74521 -1.39681 -3.21079
6829 -6.28136 4.22793 -2.36469
6830 -3.30192 15.4576 -1.91045
6831 -9.39522 2.96584 2.23655
6832 2.83194 2.50195 -5.27392
6833 2.9921 8.35686 -5.61077
6834 -6.47628 -5.80997 -11.344
6835 8.56642 -7.11914 -2.39612
6836 0.551354 -1.9044 -1.06652
6837 4.81295 2.20123 -2.67986
6838 1.04666 -10.0217 -4.65515
6839 3.09624 -1.30486 1.87985
6840 4.96121 2.11057 -0.00816918
6841 0.357379 4.04999 3.50615
6842 -3.37205 -0.172747 -4.5761
6843 0.56421 6.64791 1.27099
6844 6.95417 3.24091 6.87368
6845 1.00917 0.0786701 -4.88376
6846 -4.13215 1.38798 4.1755
6847 2.84628 11.7408 1.38405
6848 -2.64121 3.25258 -3.81463
6849 5.62782 -0.252873 -3.89097
6850 -1.08792 1.61635 -4.21867
6851 6.37343 0.575177 -9.80658
6852 0.760428 12.3653 -6.22159
6853 2.55248 4.70487 -4.62578
6854 0.658807 -5.27036 -1.91725
6855 -2.87576 0.76966 -1.02856
6856 2.39568 0.684874 -1.77969
6857 -4.53694 3.51863 -5.97174
6858 4.09026 6.03088 1.36746
6859 -6.1287 -3.28831 0.255637
6860 -0.699679 0.935512 -6.89519
6861 0.12609 -3.42449 3.29404
6862 3.49572 -0.948974 3.95665
6863 -9.78332 -0.173157 -0.223288
6864 -1.42356 0.799724 -5.09204
6865 3.27285 0.801997 1.02454
6866 6.64188 -1.24888 3.26771
6867 12.8472 -5.5129 -8.45416
6868 11.8238 2.42686 5.07377
6869 5.18224 6.95138 6.13933
6870 -3.72285 -2.53675 6.71419
6871 5.41553 6.19426 1.36884
6872 0.639503 -3.89331 -8.24215
6873 1.25604 5.53874 4.50556
6874 -4.1561 7.27903 8.39649
6875 -4.09752 1.50941 2.23558
6876 -3.18276 -1.73955 3.26671
6877 -0.415799 0.98085 -3.82061
6878 -6.42882 0.176241 -7.1695
6879 0.829342 -2.74044 -4.66197
6880 -0.590809 -5.09771 -0.876519
6881 2.74548 2.47086 3.47636
6882 9.53781 -3.32308 -4.88236
6883 1.4811 9.73983 -3.6189
6884 -10.5205 2.37129 0.705983
6885 -6.9799 8.4005 -0.113317
6886 1.2715 2.31907 6.64386
6887 -1.67542 7.43188 -2.42948
6888 -4.23107 5.49201 1.96682
6889 1.99521 9.76879 2.38069
6890 2.57228 -5.72766 4.53498
6891 -2.88995 2.69165 -0.728996
6892 -1.64135 0.290119 -4.3787
6893 1.66329 -4.33639 4.29051
6894 -3.86467 4.25046 -10.7502
6895 3.03768 -1.3755 1.76004
6896 -3.79398 0.947509 -3.61217
6897 -8.46342 -9.56353 7.27896
6898 1.7944 1.56626 1.14965
6899 6.15769 1.60431 4.91971
6900 2.91295 5.86863 6.21843
6901 -2.61897 2.70082 -9.10463
6902 -1.76002 1.40858 7.79551
6903 -0.453842 -7.76463 2.89258
6904 -6.41052 0.00251571 -8.80181
6905 -4.2352 -5.81226 1.3231
6906 1.91355 -2.51074 4.36957
6907 -1.24261 -3.97317 -0.406342
6908 -3.39744 8.73977 1.58204
6909 -9.17565 0.147256 6.80107
6910 3.88299 -1.46441 -1.19047
6911 3.32606 -2.54497 -6.14045
6912 -9.34119 -1.00135 5.83921
6913 0.712001 -0.139065 -7.68297
6914 -7.64399 0.0143007 1.37318
6915 3.87884 -8.4683 8.27836
6916 -0.280339 -0.0273592 -2.39869
6917 5.25137 -5.86431 3.9612
6918 4.33667 -3.92573 -6.27429
6919 -3.70943 1.56324 -10.7702
6920 -1.46538 -11.2703 7.01399
6921 -12.8788 10.9712 -0.754939
6922 -4.54521 10.1632 0.543136
6923 9.05113 -1.00081 0.285309
6924 -1.51663 0.145838 -0.878421
6925 -0.630276 -3.78871 -6.5177
6926 -1.27773 -4.15218 2.86448
6927 -2.02799 7.55854 2.81777
6928 -1.35738 2.90502 -9.63157
6929 4.12587 -8.80556 -9.43534
6930 0.433837 -4.15822 -2.70269
6931 -9.58165 -7.52497 -2.77013
6932 -5.20109 9.63503 1.59841
6933 -4.64239 -4.29024 -3.43447
6934 2.24179 -2.75488 -7.05822
6935 2.12868 -6.59024 -1.76742
6936 4.76249 -1.89589 -4.49098
6937 -0.147884 2.15018 4.31873
6938 7.40243 -6.36468 2.81024
6939 -0.275496 1.77537 0.282053
6940 -6.1544 1.00497 11.5644
6941 1.09072 5.6667 -8.53533
6942 0.69381 7.30759 0.872275
6943 2.79126 1.58851 -10.4468
6944 1.23162 -5.11245 8.4562
6945 -6.34582 5.46995 8.76785
6946 5.99055 -2.09532 0.986903
6947 3.65437 -6.99985 6.53986
6948 -11.8729 -0.878847 -3.38331
6949 0.542718 -1.23478 -9.78998
6950 4.50576 -1.48939 3.15109
6951 -3.85653 -3.73664 0.523831
6952 -5.02146 1.92975 6.01018
6953 3.15292 2.16558 -0.0991742
6954 -0.953797 6.57211 -7.02218
6955 -4.80249 9.69559 -1.94806
6956 -1.49795 -9.27325 -1.95908
6957 -2.02728 -4.20147 0.625099
6958 0.387109 4.45883 -6.19515
6959 3.18711 6.03398 3.43332
6960 6.624 -4.24866 2.42447
6961 -2.9245 -2.93163 2.24794
6962 -1.86859 0.11199 0.266674
6963 -5.2796 0.773273 -6.2838
6964 10.7874 -0.707274 -1.18769
6965 4.88629 4.03304 -1.09606
6966 -4.34562 -3.65158 -1.28417
6967 -3.99136 4.81822 -3.57324
6968 2.97316 -12.5075 -5.67694
6969 -5.33973 1.09512 -8.49436
6970 6.23717 6.84192 1.06493
6971 1.00674 -3.52956 9.18889
6972 1.98541 -10.9382 9.42171
6973 -3.3871 12.4019 8.96437
6974 7.2097 -10.1851 -6.95655
6975 -9.86807 -9.19283 3.84041
6976 1.84271 -7.46391 2.85704
6977 4.01818 3.65868 3.46358
6978 5.30383 1.27536 -6.13531
6979 12.0095 3.66364 1.12533
6980 -3.98362 -6.83993 -3.5237
6981 2.52014 3.14557 5.51415
6982 0.609106 -8.56733 -1.87897
6983 -7.25237 -2.05759 0.906557
6984 -2.84709 -0.849491 -3.17087
6985 2.53951 -1.1819 -0.413555
6986 2.01505 2.25343 -4.07042
6987 0.623891 7.2468 -5.26924
6988 3.99339 1.04451 7.92161
6989 -2.29619 0.99138 -6.63345
6990 -2.67126 -6.04417 -1.83887
6991 -1.51841 -6.62465 1.51466
6992 2.66968 4.14098 -2.72359
6993 -0.3466 -3.60587 5.96189
6994 0.0232867 -0.477622 4.10079
6995 2.6198 -0.576917 1.88614
6996 -9.77697 7.8568 3.06428
6997 -0.811951 5.02439 -7.278
6998 -2.51304 0.735099 -0.0184307
6999 1.92571 -14.051 3.17439
7000 0.866713 3.04162 -9.66283
7001 -4.43338 -0.97728 -3.41729
7002 -8.35088 0.279166 9.81188
7003 4.49893 2.29803 0.402222
7004 2.44202 2.62424 -12.4293
7005 5.14673 4.31157 6.54475
7006 -0.0814012 3.37693 -1.63591
7007 -8.80137 -5.81931 5.55207
7008 2.00911 -9.48078 6.73932
7009 -9.98041 -4.59011 4.80776
7010 -10.1909 -3.11443 -2.98179
7011 2.63033 -3.4229 -7.75552
7012 7.46539 3.76814 -1.57421
7013 -7.99842 -2.73705 3.36313
7014 -0.961821 0.0578766 10.831
7015 -1.1458 4.53626 -0.327141
7016 5.66576 4.96101 -0.41389
7017 0.155638 -2.46626 6.94371
7018 2.09393 -3.87568 -5.12115
7019 7.18549 0.998658 2.81412
7020 0.325471 -3.18412 2.32935
7021 3.97858 4.19301 0.0216529
7022 -3.12253 6.72375 -1.64688
7023 -3.75404 2.73863 2.51755
7024 6.99139 7.97191 8.3498
7025 3.33187 -13.3015 0.00911452
7026 -1.24252 3.88105 2.38657
7027 5.06061 -7.18047 -3.25109
7028 -2.70633 -2.05442 3.95761
7029 -7.12231 2.98438 -0.863864
7030 -5.82748 2.38924 0.369642
7031 4.84484 3.02574 -0.122532
7032 1.23651 -6.60988 -9.47198
7033 4.9469 -0.327849 2.21443
7034 5.0614 11.2629 3.80997
7035 -1.99291 -2.64652 -5.17234
7036 -7.95463 3.97989 -1.63335
7037 9.99417 1.51361 4.19012
7038 -10.386 -4.50691 -0.328431
7039 -9.50733 1.62139 -0.733101
7040 -4.58101 0.657189 4.71123
7041 2.91696 1.1934 7.22138
7042 -6.98396 4.88709 2.32091
7043 1.26751 1.86367 5.16149
7044 -1.08865 0.314145 2.33369
7045 -2.6841 -4.09165 -9.0761
7046 -4.94345 3.84176 5.57017
7047 -5.31019 1.77346 4.78064
7048 1.10046 -0.818983 -10.7348
7049 0.322305 5.52757 -4.68934
7050 7.81862 0.204632 -3.85318
7051 -1.54601 -1.81121 1.58249
7052 -1.75679 -3.59398 4.39303
7053 -8.92544 -5.79501 -2.7166
7054 -2.28584 3.63602 10.489
7055 -4.00102 3.53209 -0.0739315
7056 -3.72973 9.39537 -2.84425
7057 -7.41304 1.46417 -7.93029
7058 -1.67018 -4.99547 -2.23331
7059 0.873711 -0.842976 6.38141
7060 -1.33716 16.7345 3.47387
7061 2.58442 1.08467 2.34819
7062 -6.76419 0.951002 7.29502
7063 -4.50934 3.41275 -4.0074
7064 -7.22922 6.19665 8.44674
7065 -6.15402 -1.72448 -2.00341
7066 1.81624 3.66475 7.00111
7067 8.4948 1.14905 -3.41335
7068 4.1125 -4.95735 -7.24663
7069 0.140208 -7.51358 4.18951
7070 4.20279 -2.98331 -1.00748
7071 -8.15468 -3.19378 -2.80509
7072 -7.78896 -0.18212 -1.51684
7073 -0.0821495 -4.84535 0.379434
7074 0.440597 7.49101 -4.75361
7075 0.675803 -0.940891 -8.05333
7076 2.35746 1.54301 3.04391
7077 0.0729668 -7.77545 3.24636
7078 -2.1698 -6.99427 1.53565
7079 -5.06746 10.4554 -0.211047
7080 -3.50573 0.471449 -5.30858
7081 5.95518 -7.11432 -2.90713
7082 -1.10626 -1.34794 -5.12619
7083 0.683636 5.19803 4.46382
7084 -0.630473 -3.90147 2.74884
7085 -1.9664 -1.77784 0.611173
7086 -1.93233 -2.60973 0.272384
7087 -1.29193 2.36072 -1.67991
7088 2.76186 -5.61282 0.913192
7089 1.7052 -2.67588 2.23534
7090 -4.41569 2.47242 5.43727
7091 -3.43817 0.815906 -6.07
7092 8.38378 -4.96196 -0.43721
7093 -6.73458 -2.17608 -1.25135
7094 4.37798 -1.88666 3.97461
7095 7.32794 -2.47792 -7.85722
7096 0.858682 -3.59968 9.76823
7097 4.76315 0.327693 -5.0632
7098 -9.20897 -0.383801 -2.34915
7099 -1.7871 5.51916 1.35589
7100 2.59421 4.00184 -3.58958
7101 -3.12775 11.713 11.4589
7102 1.32118 -5.39328 4.96515
7103 6.67326 3.0182 1.62532
7104 0.732205 -2.76892 -6.36177
7105 -3.45225 -1.43317 -0.00422585
7106 11.6168 -1.23312 2.72736
7107 2.78731 -0.0406734 -3.69211
7108 -1.46548 3.17537 -5.51909
7109 -4.08609 -5.04379 -1.55068
7110 -7.54704 -2.1789 1.31976
7111 -1.84051 5.28708 3.47761
7112 2.48442 -2.71512 -4.98553
7113 -2.99923 -0.510688 11.4252
7114 8.03895 4.33431 -6.77684
7115 2.39617 1.12687 -6.59946
7116 1.54479 -8.90905 -1.22085
7117 0.841912 3.54594 -1.72509
7118 -6.15697 -1.55739 1.91567
7119 0.223952 -13.4847 1.40758
7120 4.34723 -11.187 -6.78331
7121 -4.56576 -0.687408 -2.37238
7122 -2.49023 -4.78579 8.77547
7123 -7.50536 1.29719 4.15985
7124 -3.81423 -4.08809 -3.80498
7125 5.39123 -3.85925 0.129272
7126 6.8154 -2.91315 -7.25813
7127 -1.9315 6.41659 0.0856314
7128 -5.30475 -5.57395 2.5618
7129 1.56087 0.42557 -6.06981
7130 5.13908 -7.89906 -1.88812
7131 -5.75887 -5.23916 5.22909
7132 -0.570782 -1.08181 7.4789
7133 -6.81535 -8.24705 10.515
7134 0.513776 2.34566 5.28453
7135 3.5197 -3.45282 0.822649
7136 1.65995 2.92495 2.00023
7137 6.46134 -3.03695 -10.5838
7138 11.3033 -0.679477 12.3124
7139 6.98798 2.13194 3.60039
7140 -0.822049 -11.9863 -0.940517
7141 -5.59931 4.17341 -3.49107
7142 -10.0695 -3.56749 0.250153
7143 -2.66866 8.22366 -3.31458
7144 4.35411 5.31321 -0.34403
7145 -11.3093 -3.0596 12.1796
7146 -1.95126 -2.42921 -6.49958
7147 5.70148 -2.76508 4.14487
7148 -0.475023 5.61137 -0.0992402
7149 2.1802 -0.953474 -4.90699
7150 -2.50092 -5.54644 -4.19004
7151 0.98445 -11.4062 9.11278
7152 6.06659 -3.14829 4.05088
7153 4.8528 9.65166 -6.11759
7154 -0.333363 -2.14953 0.223781
7155 4.5154 0.497326 -0.401901
7156 2.01857 -2.26836 -8.36822
7157 5.72644 4.27567 -6.07768
7158 5.84235 -1.75925 6.62454
7159 -3.11232 -0.693927 1.72168
7160 -5.2373 3.28881 5.936
7161 -0.758831 -6.023 -2.93832
7162 14.9476 2.18956 -3.26059
7163 2.58779 -0.495379 4.66042
7164 2.11568 -3.88711 5.76576
7165 1.72973 -5.28881 4.22916
7166 -1.04412 -2.71412 1.32064
7167 -1.88338 1.30444 7.02364
7168 -1.35051 -3.10589 1.92669
7169 -1.13772 -4.0834 9.89648
7170 -5.11359 2.56469 -3.21024
7171 0.392071 5.96203 -0.738769
7172 -0.291415 9.5029 -2.98891
7173 2.10102 4.39308 0.17927
7174 1.79366 9.09659 -7.22527
7175 -0.583023 3.60932 -3.39315
7176 0.526376 0.289361 -0.0950371
7177 1.33169 0.844183 6.18018
7178 -0.337364 9.68001 1.25176
7179 -2.97618 7.51958 6.88094
7180 1.02024 1.50179 -0.482421
7181 2.37369 3.0591 5.20342
7182 2.0259 -3.2875 -0.449663
7183 -3.66828 -8.01707 -4.85208
7184 -5.32988 -1.7148 -4.6696
7185 4.81392 -7.84095 -7.01421
7186 1.16136 1.3519 7.41322
7187 -4.8462 3.56154 1.63589
7188 -1.84317 -3.96466 -0.95564
7189 -7.51611 0.815635 2.28203
7190 4.57349 -1.28074 1.56795
7191 7.35437 -3.22996 1.54233
7192 -1.61756 1.43692 -2.82758
7193 -2.52639 -3.10844 -0.668666
7194 -0.321117 4.32986 3.38942
7195 -0.970916 -0.415674 -9.92544
7196 1.44711 -2.10995 -8.56696
7197 -1.80091 -5.85414 2.07937
7198 11.2228 -7.57403 -7.51786
7199 -8.73356 2.4621 -7.61973
7200 -2.05202 4.68237 4.46191
7201 1.51347 3.42241 -2.66324
7202 10.5632 -0.58182 -3.84107
7203 -3.10412 4.48161 -3.27839
7204 -0.634348 -5.39369 -0.610268
7205 -2.80052 -2.35261 3.75202
7206 5.2225 -3.35377 -2.10632
7207 -1.66631 -4.68527 9.04554
7208 -3.01661 0.781659 -2.27742
7209 -0.036467 -9.4691 3.15379
7210 0.888254 4.33616 7.41759
7211 -0.523158 4.4167 2.55417
7212 2.61203 4.24582 -1.68609
7213 -12.4193 -1.67282 -3.77998
7214 9.60894 3.2522 3.38996
7215 -6.90332 -6.06119 0.234305
7216 2.70566 -4.11701 2.85783
7217 -3.87899 -1.87799 -11.6247
7218 -2.52311 12.6562 4.29021
7219 -0.856126 6.08048 0.893098
7220 -2.85736 -2.48046 -2.38121
7221 -5.80008 2.92765 4.0941
7222 2.99101 -6.12322 1.26781
7223 0.497605 -1.81795 -2.25619
7224 -6.76687 -1.60648 11.7567
7225 8.8484 3.05206 1.19498
7226 5.56322 -9.41936 -4.92323
7227 -2.29197 -1.83535 -2.00626
7228 1.47539 -0.0799605 3.82067
7229 -1.39781 -0.200165 -3.50913
7230 2.5516 -4.48474 -9.86844
7231 -0.605143 -9.28537 3.84429
7232 4.40104 0.0578098 10.9014
7233 -7.38669 -0.216391 3.4953
7234 5.29553 2.8093 -1.7447
7235 -0.547787 -0.378968 2.34034
7236 4.20325 3.26119 2.35374
7237 -4.89073 -0.305144 6.98254
7238 -6.32063 -2.94779 0.895992
7239 -0.484955 7.26221 -5.07164
7240 -4.18058 -3.4425 2.49208
7241 2.73043 -0.283514 3.87311
7242 -4.77953 -1.35145 -3.82806
7243 1.80245 -6.71507 -2.92082
7244 -0.102896 -4.0558 1.4746
7245 1.08129 0.370968 -2.31567
7246 2.82898 2.44384 1.31564
7247 -9.90366 -1.71573 7.30657
7248 -3.46141 0.410935 1.2196
7249 -0.192807 -8.60444 3.55969
7250 1.4731 -3.9625 4.76332
7251 3.65857 1.80637 -5.05803
7252 5.90432 -4.47676 -2.95051
7253 2.04205 -2.12277 -6.65715
7254 1.08783 -0.604247 -1.04721
7255 -2.67548 4.39752 0.492173
7256 -3.05342 -2.25716 6.48889
7257 -1.28659 4.40154 -0.920461
7258 5.5081 7.02322 -2.70365
7259 -5.01187 -4.12556 -11.9874
7260 -4.09517 0.327321 -7.4678
7261 5.97771 4.13493 -6.32792
7262 -2.29612 -1.87356 -8.83276
7263 0.269977 0.617342 -12.7059
7264 -0.4153 -1.26335 -2.83525
7265 2.41564 6.46147 -3.72866
7266 4.53383 -1.10964 -2.35947
7267 1.54909 1.88447 -7.68417
7268 3.46808 6.80526 6.88904
7269 4.06861 -1.26832 0.216678
7270 5.21014 5.47052 -3.18471
7271 5.23065 3.10137 5.71531
7272 -4.06219 -1.2807 1.71364
7273 2.59425 1.62344 0.320815
7274 9.15877 0.665598 2.30149
7275 1.66177 3.98493 -3.36311
7276 3.14103 -0.35006 -6.32628
7277 3.81053 -7.36359 -3.52379
7278 -3.77463 -4.03202 -11.9334
7279 -0.532613 2.87331 -3.79795
7280 11.7101 1.72312 4.46507
7281 3.65324 -0.725064 -8.33555
7282 0.775892 -2.33041 7.58686
7283 1.71863 5.18801 -5.68095
7284 -1.8011 -0.434295 6.3001
7285 -4.08584 -14.3613 -4.17403
7286 7.41526 -0.146857 2.76236
7287 -3.04606 7.45894 2.17463
7288 -4.43948 8.14689 1.64986
7289 -2.9423 10.4937 -6.93158
7290 1.38601 5.73839 2.65933
7291 2.68856 0.448379 1.48595
7292 -6.24055 -0.48628 -2.74941
7293 -8.02142 -2.23981 -3.54868
7294 -4.59996 -2.9161 -2.41658
7295 0.160882 -7.90346 -1.55284
7296 -5.89848 3.04864 -9.92323
7297 -22.3694 -5.01375 -3.87225
7298 2.4928 1.92149 -4.64122
7299 -3.46063 -10.3941 3.60219
7300 7.33547 -1.57253 1.41849
7301 -10.4405 -3.81206 -11.1022
7302 6.327 -5.01905 0.14878
7303 -2.22728 3.62297 -3.63506
7304 -5.16468 -6.75048 -3.92123
7305 -4.97208 1.92727 11.9457
7306 7.33346 -4.4708 5.78422
7307 3.32023 -8.85425 -0.914679
7308 4.50747 -1.65724 -3.35316
7309 -1.88052 5.34729 -1.38678
7310 10.5596 -4.00379 9.44143
7311 5.30593 -5.6989 -3.22765
7312 -2.70201 -2.29262 -16.3237
7313 -6.48399 -0.6227 -5.69138
7314 2.09951 -0.579911 4.0986
7315 2.6927 1.48556 -4.23521
7316 2.00829 0.492059 -5.00854
7317 -4.19208 0.726591 1.19168
7318 -2.25644 2.70929 -1.31394
7319 5.53966 -2.13663 -5.51788
7320 0.15459 -1.99436 3.51766
7321 4.89363 -13.1934 0.849649
7322 -3.65561 3.32091 -7.27808
7323 7.79815 0.660669 2.41977
7324 1.83256 7.19389 -2.18816
7325 6.58626 0.933129 -7.60136
7326 1.92625 -5.99861 -2.64398
7327 -3.21408 3.50711 -4.50903
7328 2.3352 12.7198 1.94591
7329 0.185755 -3.78357 4.91847
7330 -6.56086 -4.84199 5.25057
7331 -0.0523742 -7.27283 -2.52126
7332 2.98122 8.12387 5.96705
7333 10.2679 7.21588 2.99881
7334 7.16814 3.04824 -3.68442
7335 10.3225 0.875962 -1.22101
7336 9.67003 5.28069 9.54256
7337 5.96983 1.55865 1.21588
7338 -0.843451 5.62799 2.9049
7339 -6.42576 -0.0296867 -2.86587
7340 -0.464534 -8.14202 3.88479
7341 -0.00497918 -1.47437 -0.848024
7342 -3.00324 3.63078 -6.01684
7343 1.62546 -6.8699 5.35441
7344 -2.14181 -2.55313 6.19341
7345 5.49597 0.816257 1.27422
7346 3.24346 2.82538 1.80418
7347 0.0813527 6.6389 -7.34938
7348 7.04407 -3.42788 4.87009
7349 5.80844 0.35812 0.317016
7350 -2.23694 -2.53188 -2.37358
7351 -0.631136 -6.5991 -3.6828
7352 3.87412 -8.79329 -7.99907
7353 -2.47324 -6.49951 -3.98488
7354 2.68284 -1.21833 2.01343
7355 -6.22306 5.91019 6.90418
7356 -3.05126 -2.98106 -12.1059
7357 -5.27973 -0.900563 -5.67242
7358 1.23516 -15.9598 -3.16752
7359 -3.54048 -5.83459 2.0269
7360 4.56758 6.56921 -2.40625
7361 -0.187164 0.223493 -5.99749
7362 2.67223 9.05129 2.77536
7363 0.130053 10.2877 0.169277
7364 -4.44492 -9.12744 1.99179
7365 -5.85834 2.12447 -6.42664
7366 4.22231 10.4601 5.08372
7367 3.81184 4.22555 -3.43621
7368 5.27185 -9.08927 -3.79849
7369 1.51791 6.87373 -3.93882
7370 4.88588 -6.84213 2.28222
7371 3.45309 -19.5343 -9.56089
7372 8.63366 1.50664 -4.12627
7373 7.11396 -6.00665 -0.96583
7374 -1.09047 11.4764 10.5478
7375 0.0648924 2.31127 -2.59058
7376 -7.41188 1.80169 2.64598
7377 -6.34722 7.63724 -6.60653
7378 -8.73884 -1.82455 1.22295
7379 5.04422 -1.64274 10.8622
7380 9.37316 2.86079 2.76281
7381 -2.08802 -0.0856089 2.18334
7382 -0.623437 -4.45733 2.94917
7383 -0.115501 6.26508 1.60741
7384 -1.6843 -2.4529 6.8874
7385 3.53516 -1.29307 -0.563319
7386 9.70946 -0.224146 8.56363
7387 2.54466 -0.974798 -9.82317
7388 2.05509 2.13711 -3.7387
7389 -6.50039 -6.42989 0.727608
7390 -4.71772 0.252525 -5.1831
7391 0.650303 -4.85183 -5.56677
7392 4.66429 7.35775 7.37873
7393 -3.75829 -3.76417 1.08974
7394 -3.19947 -3.39832 -3.42615
7395 2.58689 2.99033 -5.84082
7396 4.3586 -0.0601363 -3.69738
7397 -10.3105 -5.39062 -0.104864
7398 -2.59293 -4.86353 0.492237
7399 0.879789 2.51234 3.50661
7400 2.67694 4.55562 4.13664
7401 3.94764 2.75682 2.38733
7402 -3.81609 3.85237 -5.41999
7403 3.99636 5.49241 6.10679
7404 1.14013 13.8229 -2.93442
7405 -1.32529 3.44411 -1.89699
7406 -0.898827 -0.144085 -0.090962
7407 4.72221 -2.24027 2.45229
7408 1.6113 9.43611 4.39743
7409 1.55636 15.1 -9.86925
7410 -8.57641 -3.18105 6.65952
7411 3.58787 4.35376 -5.14348
7412 -2.1084 -0.87009 -5.77433
7413 -4.46852 2.62268 -2.29713
7414 -2.06497 -8.09843 5.51353
7415 4.81847 2.65738 -6.12194
7416 2.60744 0.812762 -1.93121
7417 4.94794 -3.91633 -2.38558
7418 5.53949 -5.46373 1.17228
7419 -1.03564 -0.239027 3.50178
7420 0.865293 1.96497 4.398
7421 8.25527 -0.970952 -8.64639
7422 -0.518582 4.36816 -0.277698
7423 -6.57333 -5.95549 0.715058
7424 1.72463 0.0446891 -2.48508
7425 0.185949 -8.59586 -0.563394
7426 4.13801 -0.944622 -3.09491
7427 4.0808 0.462923 4.26325
7428 -1.64753 -3.70264 -5.95968
7429 4.97862 5.21426 -2.90676
7430 1.30674 14.0845 2.40169
7431 -6.62825 -11.0272 4.4096
7432 -5.26108 -3.2763 7.14095
7433 -1.93899 -4.40408 0.146641
7434 5.57505 13.1815 0.712985
7435 0.633451 -7.91301 -0.608686
7436 0.807897 -6.95216 -8.56604
7437 -2.50155 2.04383 6.68628
7438 -4.14353 0.442728 -12.237
7439 4.23693 -0.560696 -6.05869
7440 -4.43128 -1.73776 -6.83956
7441 -2.90171 9.88057 -4.90567
7442 -2.52757 -4.08427 2.04329
7443 -2.09038 2.88623 -1.44953
7444 -2.87303 -3.52786 4.27437
7445 -0.637677 -9.37595 -3.56715
7446 -8.39116 -1.07273 -0.530729
7447 -2.68445 -4.73976 -3.46409
7448 4.64952 -1.18656 -1.77715
7449 1.47518 -1.61325 4.57491
7450 -0.479238 4.44278 -3.33195
7451 -1.02227 3.13513 3.139
7452 -3.35636 5.83318 0.865893
7453 -5.55337 -1.17733 -3.25437
7454 -3.94318 -3.09222 1.45512
7455 1.01766 -0.931735 4.41605
7456 4.65154 -1.22854 -5.27232
7457 -6.05943 -4.6839 -1.5311
7458 -1.96919 -2.95759 2.90012
7459 -1.3305 -2.9978 5.26988
7460 2.44179 -3.19038 -2.04612
7461 -1.78499 0.389707 2.00154
7462 -4.4393 5.14931 -2.20641
7463 2.9226 3.0965 -1.84729
7464 -3.39733 4.95702 0.417706
7465 -4.70879 2.35975 10.9859
7466 -10.4133 -2.4615 2.5157
7467 -8.15053 -9.31595 -3.85507
7468 -3.60102 2.02165 5.9116
7469 -4.98302 -3.16989 -4.3608
7470 -2.26586 -1.82602 1.6116
7471 2.78011 -1.52111 -4.31914
7472 -2.52109 1.11088 1.87673
7473 1.91002 -1.9187 9.58353
7474 3.69351 -2.40399 -4.8809
7475 3.77217 5.35642 -1.23029
7476 -3.20049 8.84361 -2.51142
7477 5.954 -9.37734 2.88321
7478 -1.41159 -1.22129 4.74175
7479 -8.30548 -4.78617 8.43507
7480 -2.12244 3.61217 -7.66583
7481 -2.27027 1.05438 -2.92329
7482 3.77121 8.1204 -4.16031
7483 -3.29596 -5.60011 0.608332
7484 7.82807 3.18016 -1.71079
7485 -0.535092 -2.28538 -9.3409
7486 4.52101 5.33738 -2.7813
7487 -0.0457497 -3.28856 12.2987
7488 0.747954 0.207557 0.980525
7489 3.06571 0.220152 5.58649
7490 6.52878 0.459352 2.32873
7491 1.68672 2.3838 1.22469
7492 5.30401 -2.83125 6.31778
7493 6.25254 7.71541 -2.93859
7494 -8.32586 4.43696 5.04823
7495 -0.808873 -3.79865 -0.979846
7496 -6.89722 2.87906 0.340168
7497 3.41628 7.48749 3.63011
7498 0.384473 -3.6705 -3.56571
7499 0.289284 2.65431 -9.55168
7500 -7.55903 1.66956 5.72013
7501 -0.29214 3.28531 -7.72824
7502 2.32603 -3.623 4.46701
7503 -6.13317 2.41586 -2.57059
7504 2.97167 -0.0095756 -3.54572
7505 -7.77217 5.43693 -3.33007
7506 -2.21139 4.4179 -3.48465
7507 -2.40302 -1.21013 3.27093
7508 3.09295 -3.93154 -1.70473
7509 -1.17873 1.12585 -8.66799
7510 0.602718 -11.4276 5.56111
7511 0.954556 -2.29059 -0.208967
7512 8.81311 -2.44283 -1.37474
7513 -4.15709 2.3138 2.12467
7514 -5.55909 3.32725 3.17486
7515 2.81233 1.94908 4.48722
7516 -2.76166 -5.58983 -2.17678
7517 -1.77544 -1.16124 4.48886
7518 -4.11565 3.52785 -5.16165
7519 3.98099 3.54676 8.65957
7520 -0.915996 -4.62394 -6.8402
7521 -8.89523 -4.23932 -1.86347
7522 -1.42237 8.44375 4.37777
7523 -1.33894 -0.0372183 -12.5141
7524 2.81316 12.7011 6.83029
7525 -0.768568 -2.14272 -0.657244
7526 -5.59234 4.86163 0.00394819
7527 6.34495 -1.61977 2.75072
7528 -2.61912 5.20964 -3.12952
7529 9.89495 -6.80289 -8.42025
7530 6.52861 0.651916 2.98168
7531 -2.03411 -2.90427 8.06406
7532 3.16305 0.710198 -4.50113
7533 -2.58395 1.65442 -7.52899
7534 0.58657 2.03951 -10.6219
7535 2.33363 0.327353 -3.33391
7536 1.30799 4.27482 -1.83496
7537 -1.31352 3.01339 -5.85
7538 11.0562 4.05722 -2.57564
7539 -4.28096 1.30837 -4.25284
7540 -2.96985 -1.99795 4.59447
7541 -1.85328 1.66336 5.72571
7542 -2.18338 -2.54157 -1.62311
7543 0.689219 11.285 5.64052
7544 0.749684 7.97932 -3.54432
7545 -5.88426 -1.43976 -3.00977
7546 -0.384258 -0.902675 -2.48646
7547 -13.085 -3.75053 -0.0737539
7548 0.667755 -1.98384 -0.72766
7549 1.36908 0.555369 -1.47572
7550 -0.684915 9.075 -2.71042
7551 -5.86246 2.66952 -2.45621
7552 2.11907 1.16758 4.6029
7553 8.4623 7.69113 0.699447
7554 3.51139 -9.18975 5.52083
7555 11.6072 8.08133 -1.87665
7556 5.94796 3.18854 -2.96606
7557 2.09287 -1.31619 -2.28256
7558 -1.83716 -2.7686 -3.69118
7559 -5.80131 -1.98938 -5.92284
7560 10.9977 4.06749 -5.03804
7561 4.07897 0.35449 -5.96393
7562 -2.84354 -0.484734 -3.99728
7563 -1.98002 -2.42827 2.38773
7564 5.38423 1.34222 1.31982
7565 2.5348 -3.77653 -5.39658
7566 1.66571 -1.05849 -3.08649
7567 -1.11933 2.85314 2.20673
7568 -2.74608 -2.81862 1.90652
7569 1.58268 -12.9322 1.07472
7570 -2.24655 9.80484 0.324414
7571 6.63139 -0.201909 -2.7093
7572 -0.304239 10.7896 11.8864
7573 1.92884 -4.00472 -1.67853
7574 -0.343703 -2.23642 -0.621828
7575 -3.9477 9.76438 1.2692
7576 -6.12671 3.90445 -2.29307
7577 -0.351407 -4.12629 1.61611
7578 1.17391 6.17741 -2.19372
7579 -0.712662 9.45509 -2.00272
7580 4.57991 1.45547 -8.51145
7581 6.57567 -2.82274 3.37408
7582 4.39218 -1.6782 -3.42247
7583 2.17495 -0.945893 6.80672
7584 0.931149 -0.322679 -3.49492
7585 0.404298 -0.674203 -9.18514
7586 -3.80454 -2.5816 -7.53074
7587 3.74004 -6.04669 10.7118
7588 2.70383 1.27301 2.29793
7589 0.645873 0.668582 1.57529
7590 -3.5818 -3.63861 -2.36864
7591 0.730176 0.770645 5.15886
7592 -6.79324 1.33519 7.71004
7593 -5.05613 -5.84634 4.96546
7594 -0.444511 0.274057 -4.1639
7595 4.06693 0.926632 4.47472
7596 10.032 3.55482 -4.75178
7597 -1.49394 7.46906 3.46289
7598 -3.55561 -4.28946 -7.3657
7599 5.27751 -3.511 2.58211
7600 1.58116 2.99327 -6.71551
7601 1.75253 -8.19048 -7.24809
7602 0.672082 7.78281 6.07315
7603 -9.72271 -4.07819 10.3496
7604 3.43651 -2.93906 -0.112195
7605 -0.189998 -3.77097 -6.85544
7606 -1.17153 -3.41746 -1.85945
7607 -0.135599 0.395799 -2.10097
7608 3.81353 3.05253 -3.76286
7609 -12.2608 -6.80119 0.625376
7610 -2.01744 3.83641 -3.30733
7611 4.12371 -0.455122 2.98431
7612 0.424702 0.571303 -4.20562
7613 5.04527 5.06086 -0.116492
7614 -4.37781 3.10537 6.99011
7615 7.93163 -1.7397 3.79558
7616 -8.56227 5.81271 0.224008
7617 -1.61086 2.77608 -0.656552
7618 -3.26011 -0.85988 -2.69308
7619 -0.485151 -1.05027 9.43452
7620 -4.60695 -2.35145 -7.31958
7621 1.81996 -3.18684 9.29528
7622 -2.38794 4.25398 -0.936488
7623 4.78513 -7.73805 0.637932
7624 0.685869 1.19237 -0.0540424
7625 10.4322 -5.67342 7.1714
7626 4.90655 4.58424 3.61343
7627 2.91504 -3.30293 5.19606
7628 -3.19469 -2.98045 2.44554
7629 1.67876 4.781 -0.498506
7630 0.140919 0.127604 -6.07767
7631 8.87626 -1.59224 -0.175192
7632 -5.21107 -14.4609 6.92697
7633 -0.989674 -7.27786 -13.228
7634 -0.283034 -4.78479 4.21639
7635 -2.09293 -5.2185 3.09865
7636 0.412974 2.78338 2.39004
7637 4.58469 -0.447648 3.78467
7638 -6.30087 -2.84447 -4.28863
7639 -3.11891 0.22728 0.0259314
7640 -5.11482 0.6762 -0.646738
7641 -4.18303 4.21949 1.3263
7642 -2.72747 -5.0252 0.252844
7643 -2.13251 0.910178 4.77946
7644 -9.05265 -0.288208 2.44068
7645 -4.06551 -6.01733 4.27162
7646 6.89682 5.66754 8.6502
7647 -3.34926 6.05684 -5.55569
7648 1.05199 0.755418 4.91798
7649 -0.551425 6.1949 0.206712
7650 0.124305 -0.191079 -3.71992
7651 -5.76378 4.09973 2.10598
7652 10.3457 -2.10432 0.201244
7653 6.39949 7.31247 1.28055
7654 0.793537 5.37474 3.70908
7655 0.0730529 -3.18366 -3.41885
7656 1.77093 -1.70558 6.93546
7657 -1.82642 -8.84549 3.58092
7658 8.79161 -12.4578 1.39709
7659 1.01378 -0.47589 4.8747
7660 -0.84545 -6.54357 11.6071
7661 6.24745 9.21294 1.78004
7662 -11.3685 5.21433 3.65329
7663 5.06472 0.977195 2.34938
7664 1.12941 -0.486561 3.77856
7665 0.430879 -3.58741 -0.55102
7666 -2.07626 -5.41599 -4.93857
7667 -1.70071 -1.09564 4.47694
7668 -2.36466 6.2929 1.13665
7669 7.04183 1.83139 6.77204
7670 4.33404 -4.18998 -1.91006
7671 -4.29732 1.72814 5.7775
7672 -0.503898 1.59689 -3.09301
7673 3.9309 5.77322 4.64719
7674 6.58979 6.85056 7.52732
7675 -3.85289 7.6994 -7.78433
7676 7.13135 0.0124799 -3.4384
7677 0.344849 -4.19423 6.51909
7678 -3.29907 5.66769 -0.64875
7679 -0.776613 3.66234 -4.81975
7680 0.364607 7.50253 7.87277
7681 10.4545 -7.42972 4.15467
7682 -1.03417 -1.47256 6.5889
7683 4.39561 0.5624 0.604001
7684 3.56741 -1.32457 -2.7037
7685 0.77294 -1.52063 -1.68693
7686 -3.08409 0.422178 -1.78225
7687 1.69077 -2.93883 7.44601
7688 -3.89413 -3.48234 -5.92553
7689 1.45141 3.04999 -4.4506
7690 -1.23303 4.11358 2.7483
7691 -4.01041 1.54933 3.44361
7692 5.67471 -7.99381 5.50587
7693 -1.91081 -1.54417 -9.0692
7694 -0.359976 -1.3093 -7.39832
7695 -0.828198 4.77114 0.162477
7696 0.201013 -4.66545 7.42976
7697 0.706794 0.0578734 3.55034
7698 3.89313 3.9016 -1.04193
7699 0.215459 -9.88345 -6.06654
7700 4.86942 3.03605 2.02927
7701 -3.8346 -0.747653 -5.6267
7702 -1.99119 2.39418 4.04691
7703 -5.62153 -10.0226 -9.03767
7704 -1.83309 -1.22194 1.65921
7705 -1.32392 0.10398 -3.27397
7706 -7.51679 -1.18121 0.49616
7707 4.92913 4.01735 1.52832
7708 0.447904 -2.6563 -0.486631
7709 -5.0247 6.15833 -1.89599
7710 -2.17602 2.74018 6.4708
7711 4.35348 -1.81565 6.32962
7712 3.7968 -4.62849 1.96998
7713 -12.3491 5.29269 -2.22265
7714 -4.01983 -5.8581 -5.10092
7715 2.81832 0.445098 4.55815
7716 -1.5798 -7.01339 -4.40051
7717 -3.00771 1.68267 -8.58575
7718 -1.92559 -1.10145 1.40022
7719 -0.80788 -2.65848 7.49089
7720 -1.0869 -2.77199 2.05331
7721 -12.8321 0.0649084 5.91154
7722 4.76963 -3.47846 -2.10753
7723 -2.19793 -0.475166 9.05946
7724 4.44592 0.561713 4.75908
7725 -0.0665956 0.32869 -3.9557
7726 0.589478 -0.188547 -1.71121
7727 -0.473994 12.1073 5.58867
7728 -0.770346 2.41237 10.2492
7729 -5.64354 -4.96056 1.26382
7730 12.7143 4.02159 -1.16683
7731 5.7285 2.16518 0.546662
7732 -2.61024 -0.152729 7.69864
7733 7.11384 1.04868 -3.14329
7734 -8.24382 -1.37854 8.4551
7735 -0.352974 -4.35113 4.0205
7736 -3.16398 12.0501 -3.01332
7737 3.20305 0.467842 -3.44096
7738 0.126912 -0.00986564 -0.069679
7739 -3.53106 -2.24485 1.0044
7740 -5.75287 6.18251 -5.59699
7741 1.68346 2.35971 1.96308
7742 6.4748 -8.1792 -0.805427
7743 -4.63911 -9.21568 10.3611
7744 -1.28405 0.416251 1.96838
7745 0.629704 0.00752991 4.3648
7746 1.83969 7.65863 -0.881848
7747 -1.3601 3.34345 13.757
7748 4.71428 -11.2574 1.14896
7749 -4.28844 -0.724598 8.29329
7750 6.16201 -0.520905 4.49215
7751 2.3294 6.44036 -12.1537
7752 4.48177 -0.569523 0.115484
7753 5.70475 -7.23337 1.9572
7754 8.8709 -7.4639 -1.65611
7755 -10.7993 -1.95883 0.908915
7756 -2.02042 3.02238 6.17645
7757 5.38167 -3.60613 -2.44039
7758 0.89649 -1.51946 -8.76475
7759 3.28149 -0.526748 0.875452
7760 0.957865 -1.17292 -0.869607
7761 2.08403 2.66333 1.58019
7762 -1.55823 -12.618 -2.85452
7763 -5.01646 2.98208 -6.43307
7764 -6.81012 -1.45253 5.77035
7765 -0.860849 0.449883 6.19201
7766 11.7766 0.542337 -6.98747
7767 -0.988086 1.85785 0.572658
7768 -0.454268 4.89103 0.0917373
7769 -0.699082 4.99729 4.4779
7770 -7.82745 0.260632 -1.22981
7771 1.91491 -0.371687 3.99085
7772 -4.4569 2.82885 -3.83095
7773 3.64381 4.64663 5.13923
7774 2.38962 -7.47445 3.84267
7775 -2.41382 6.24258 -3.68657
7776 3.15945 -5.41312 -14.7663
7777 -9.53973 -2.47319 -6.5765
7778 1.06208 -1.20494 0.662113
7779 0.935119 4.5181 7.02103
7780 0.661485 -2.39258 -2.79925
7781 -6.00301 -6.37133 5.58197
7782 1.05932 -2.3622 -8.17518
7783 0.72152 -0.442476 -3.67808
7784 3.22664 2.70122 -0.285028
7785 3.80981 2.52755 7.01768
7786 7.40937 -6.29668 4.53776
7787 -0.273857 2.83846 6.71137
7788 -2.1881 5.951 -0.0989207
7789 7.76821 3.13425 -0.789587
7790 0.229547 -0.65768 4.18776
7791 5.37167 -0.62124 -1.53493
7792 -7.38356 1.21019 -1.92692
7793 0.933941 2.26955 -0.488209
7794 -6.15499 -2.78373 4.8367
7795 -1.68637 1.69547 -0.0298825
7796 10.2596 -2.18802 3.53094
7797 -5.55118 -0.740062 -10.1068
7798 -0.939402 5.47276 3.0803
7799 9.6729 -0.488559 -2.46329
7800 7.89001 11.3703 9.84003
7801 -5.98923 -3.6681 -1.22876
7802 2.93858 -1.07693 -0.940119
7803 -6.67337 -6.19795 1.6514
7804 2.18486 -0.128635 4.80164
7805 -3.31176 14.6865 -1.42175
7806 -4.6584 8.50267 5.52229
7807 -0.855712 -3.77995 5.89023
7808 -0.46052 -1.70775 0.345554
7809 -0.30283 0.533813 7.51238
7810 3.30688 -1.52344 -0.831321
7811 1.13135 3.12642 -2.17883
7812 4.34688 -6.90904 -6.88298
7813 -5.9697 -4.00213 -2.47633
7814 -3.31521 -0.135973 0.640257
7815 -4.31866 -0.810436 -0.936838
7816 7.15136 0.954639 5.46348
7817 3.69539 -5.4522 -2.01483
7818 1.12172 1.25197 4.56937
7819 -4.0089 6.52128 -1.05204
7820 0.228621 -1.82793 5.3655
7821 -0.316269 0.951599 1.85592
7822 2.24084 -6.26364 10.3228
7823 4.8807 -9.08073 -4.26219
7824 5.52666 1.12949 4.46745
7825 1.65532 -3.66562 -4.08672
7826 -1.34459 5.40282 5.71629
7827 -1.62122 -4.72861 8.03186
7828 -6.93857 4.49565 -0.992174
7829 3.20315 4.51435 -1.34284
7830 6.13051 3.1523 -7.19065
7831 -1.35552 -2.41045 0.0771596
7832 3.10036 5.69304 5.01036
7833 -5.92517 2.15127 -0.573224
7834 -2.58472 -3.41716 -0.186622
7835 7.11567 -0.911048 -0.0711268
7836 -10.7513 -7.66524 -0.337579
7837 -2.6537 4.50614 -6.44373
7838 -0.359302 -6.1237 -4.58467
7839 5.09037 4.07541 1.75994
7840 1.62229 -3.76896 -6.26841
7841 3.64723 -4.71568 -1.98188
7842 -2.93068 0.0579232 -3.23305
7843 -2.78655 6.83818 1.75723
7844 2.15035 -2.40108 -5.93048
7845 2.60302 1.77055 5.47296
7846 7.14151 -5.47787 -2.61617
7847 -3.26791 11.0348 0.0699204
7848 -9.59947 2.85796 9.10572
7849 7.72918 3.35903 -4.2864
7850 -3.03361 -2.48839 12.4317
7851 -3.98886 4.57967 5.72407
7852 7.80955 0.286828 2.92623
7853 2.74983 7.38133 0.38997
7854 -0.169353 0.872533 -1.98388
7855 3.26071 1.32583 6.90694
7856 -7.11639 -2.57314 -4.11373
7857 -1.59284 -2.65768 -1.03217
7858 6.45231 0.482058 -1.41124
7859 -8.85004 -2.26469 -7.98372
7860 -1.72123 1.65023 8.39323
7861 10.6993 2.37092 -4.87777
7862 3.34016 -0.121558 -2.58899
7863 -11.0006 3.87458 13.2834
7864 -2.86551 -10.3595 -0.549841
7865 -5.44479 2.93349 -7.31413
7866 7.00234 0.769055 -5.42766
7867 -9.16916 -9.20471 -0.747724
7868 8.97843 -3.14179 0.789435
7869 8.44705 -0.978428 -0.111595
7870 -6.08445 -2.38882 1.21489
7871 4.13829 -3.9042 5.5308
7872 2.94823 -0.756297 -4.4458
7873 -6.94122 -4.75084 5.09311
7874 5.43918 1.48287 1.61425
7875 2.44515 -5.51783 -1.59689
7876 0.747507 -3.96366 0.876242
7877 3.49995 -0.57301 -0.379944
7878 -4.64955 -4.5815 -0.0232977
7879 -0.134249 1.86975 -4.39749
7880 -2.74918 -1.29045 9.60047
7881 -2.91098 -3.88436 -3.3881
7882 8.06756 -1.92499 -5.28217
7883 4.2694 -2.18979 -0.486322
7884 2.99532 -0.546908 -0.474488
7885 -0.189145 -9.43924 -1.70398
7886 -6.65424 -3.46078 2.75789
7887 7.19431 0.290568 -11.8929
7888 -2.29019 7.9072 7.63377
7889 4.48756 -4.75242 1.14238
7890 -1.09375 0.111538 0.408666
7891 3.9498 4.74261 1.58638
7892 2.26237 -3.54603 6.15642
7893 -6.85859 -5.94866 3.03342
7894 -0.834069 -1.30731 0.97057
7895 5.40971 -14.792 4.64973
7896 -9.95089 9.25758 -2.28348
7897 0.558514 -3.25813 2.55489
7898 -2.45497 -1.67084 0.470033
7899 -0.583155 -6.076 0.734532
7900 -6.24381 1.81974 2.54132
7901 4.84887 6.82881 -0.677996
7902 4.62978 2.83653 -2.2477
7903 6.66588 -3.52746 0.915291
7904 -4.76612 -2.14153 0.920323
7905 -1.46006 0.813294 -2.20749
7906 0.546763 -5.91258 -0.125934
7907 -2.72344 -3.95929 -7.31888
7908 -7.44371 1.74411 -10.2261
7909 0.428501 -5.79849 9.79463
7910 -7.31075 3.35987 1.30358
7911 13.4211 -1.39363 3.19891
7912 -2.94161 -6.57021 4.30634
7913 -5.57067 -13.9171 2.42515
7914 5.52221 0.602515 -3.22246
7915 0.279189 -0.470311 0.3251
7916 4.75379 12.2179 6.62051
7917 1.30741 -9.17069 -2.37027
7918 8.30738 -4.61958 -0.767869
7919 -0.378018 -3.76282 -0.362265
7920 3.74635 -2.07931 -1.47004
7921 4.67697 3.37489 1.83169
7922 4.84745 0.514775 7.18403
7923 -0.970729 2.13436 -1.29852
7924 3.0049 -9.11966 2.65299
7925 -1.58485 -3.59874 -5.58214
7926 6.9397 3.50052 1.72333
7927 1.10654 5.24229 -2.62469
7928 0.402405 -3.96005 7.03546
7929 2.4152 2.76066 0.131064
7930 3.72013 5.4881 -2.28922
7931 -6.85329 1.93302 9.3431
7932 2.52891 -9.90964 9.08867
7933 2.12858 -6.55605 0.567664
7934 3.67865 5.35555 -2.13609
7935 -9.10925 4.6218 -3.18495
7936 5.73751 -1.99624 -1.12665
7937 4.18532 -6.83834 0.0683803
7938 -4.02358 1.79786 -1.30096
7939 -0.936427 -2.17658 -7.70206
7940 7.36412 -2.15356 1.08224
7941 8.24034 -0.812962 2.6114
7942 -5.45511 -10.0984 -7.21564
7943 -1.34525 0.957188 1.42958
7944 0.0262247 2.57563 1.65341
7945 1.86103 1.47178 -0.748582
7946 2.14985 4.12471 -2.61777
7947 -2.28646 0.840337 3.64636
7948 -0.248809 0.102714 1.30259
7949 -1.01521 7.33303 -6.68332
7950 -1.57745 -2.4361 3.57231
7951 7.04851 2.01268 -7.20287
7952 0.616756 -1.14535 0.996531
7953 3.32801 -2.77202 -9.41935
7954 5.04068 1.56749 2.16771
7955 -3.51627 1.8077 1.941
7956 -4.33173 -0.463342 3.50173
7957 -8.07828 -0.890835 4.087
7958 -0.548341 -4.15513 -2.26817
7959 1.69552 -3.59739 4.86352
7960 7.75327 -4.62674 1.79772
7961 -0.122969 -6.20702 1.19413
7962 1.28303 0.96847 7.84568
7963 -3.08403 -1.18921 9.3405
7964 2.27691 -3.33061 -1.31313
7965 -0.704455 -4.49631 -2.18887
7966 -4.66337 -1.22754 -4.61591
7967 -2.06319 -4.62568 -9.65644
7968 6.10414 -6.61956 6.82155
7969 2.83962 -5.39854 5.78822
7970 -1.16229 0.880345 -4.66025
7971 4.36867 -3.19117 -7.53882
7972 -2.26543 -2.30563 -10.419
7973 -4.34554 -5.16024 1.79413
7974 2.96928 4.53856 -4.24556
7975 -0.233084 -10.3658 -3.17974
7976 -2.96372 -7.88 -1.96562
7977 15.4583 -2.59552 -4.14938
7978 5.97358 -4.65443 0.777741
7979 -0.688766 -9.65216 0.403234
7980 -5.01097 -1.64664 0.172908
7981 -6.00764 -4.09665 1.34462
7982 0.56085 4.80631 1.68724
7983 -12.9623 7.52566 9.32031
7984 1.85552 -1.18551 2.59875
7985 6.23144 1.76162 -3.78106
7986 11.3905 0.116724 3.58327
7987 -3.76427 -0.278461 -9.92992
7988 -0.0102589 2.17898 -4.57458
7989 0.3751 -12.3763 2.52388
7990 -1.35007 7.37959 -1.34829
7991 -3.10267 0.662447 3.1222
7992 -4.96413 1.46099 -5.15714
7993 -2.41004 -0.861789 12.4875
7994 -2.00516 -1.56078 6.48916
7995 9.07926 -6.94546 -5.21435
7996 -4.05946 -3.61007 6.23031
7997 -4.73386 -0.631346 7.66305
7998 -2.25081 3.64749 6.34111
7999 -1.60455 2.74452 -0.932499
8000 -3.74234 -5.17105 -2.36083
